*SPEF "ieee 1481-1999"
*DESIGN "user_project_example"
*DATE "04:42:49 Thursday March 26, 2026"
*VENDOR "The OpenROAD Project"
*PROGRAM "OpenROAD"
*VERSION "dfc4f595dfb2e1c346492ff1f0274abb28725acf"
*DESIGN_FLOW "NAME_SCOPE LOCAL" "PIN_CAP NONE"
*DIVIDER /
*DELIMITER :
*BUS_DELIMITER []
*T_UNIT 1 NS
*C_UNIT 1 PF
*R_UNIT 1 OHM
*L_UNIT 1 HENRY

*NAME_MAP
*3 clk_i
*4 rst_ni
*5 ui_PAD2CORE[0]
*6 ui_PAD2CORE[10]
*7 ui_PAD2CORE[11]
*8 ui_PAD2CORE[12]
*9 ui_PAD2CORE[13]
*10 ui_PAD2CORE[14]
*11 ui_PAD2CORE[15]
*12 ui_PAD2CORE[16]
*13 ui_PAD2CORE[1]
*14 ui_PAD2CORE[2]
*15 ui_PAD2CORE[3]
*16 ui_PAD2CORE[4]
*17 ui_PAD2CORE[5]
*18 ui_PAD2CORE[6]
*19 ui_PAD2CORE[7]
*20 ui_PAD2CORE[8]
*21 ui_PAD2CORE[9]
*22 uo_CORE2PAD[0]
*23 net34
*24 net35
*25 net36
*26 net37
*27 net38
*28 net39
*29 net40
*30 net41
*31 net
*32 net27
*33 net28
*34 net29
*35 net30
*36 net31
*37 net32
*38 net33
*39 _000_
*40 _001_
*41 _002_
*42 _003_
*43 _004_
*44 _005_
*45 _006_
*46 _007_
*47 _008_
*48 _009_
*49 _010_
*50 _011_
*51 _012_
*52 _013_
*53 _014_
*54 _015_
*55 _016_
*56 _017_
*57 _018_
*58 _019_
*59 _020_
*60 _021_
*61 _022_
*62 _023_
*63 _024_
*64 _025_
*65 _026_
*66 _027_
*67 _028_
*68 _029_
*69 _030_
*70 _031_
*71 _032_
*72 _033_
*73 _034_
*74 _035_
*75 _036_
*76 _037_
*77 _038_
*78 _039_
*79 _040_
*80 _041_
*81 _042_
*82 _043_
*83 _044_
*84 _045_
*85 _046_
*86 _047_
*87 _048_
*88 _049_
*89 _050_
*90 _051_
*91 _052_
*92 _053_
*93 _054_
*94 _055_
*95 _056_
*96 _057_
*97 _058_
*98 _059_
*99 _060_
*100 _061_
*101 _062_
*102 _063_
*103 _064_
*104 _065_
*105 _066_
*106 _067_
*107 _068_
*108 _069_
*109 _070_
*110 _071_
*111 _072_
*112 _073_
*113 _074_
*114 _075_
*115 _076_
*116 _077_
*117 clknet_0_clk_i
*118 clknet_3_0__leaf_clk_i
*119 clknet_3_1__leaf_clk_i
*120 clknet_3_2__leaf_clk_i
*121 clknet_3_3__leaf_clk_i
*122 clknet_3_4__leaf_clk_i
*123 clknet_3_5__leaf_clk_i
*124 clknet_3_6__leaf_clk_i
*125 clknet_3_7__leaf_clk_i
*126 net1
*127 net10
*128 net100
*129 net101
*130 net102
*131 net11
*132 net12
*133 net13
*134 net14
*135 net15
*136 net16
*137 net17
*138 net18
*139 net19
*140 net2
*141 net20
*142 net21
*143 net22
*144 net23
*145 net24
*146 net25
*147 net26
*148 net3
*149 net4
*150 net42
*151 net43
*152 net44
*153 net45
*154 net46
*155 net47
*156 net48
*157 net49
*158 net5
*159 net50
*160 net51
*161 net52
*162 net53
*163 net54
*164 net55
*165 net56
*166 net57
*167 net58
*168 net59
*169 net6
*170 net60
*171 net61
*172 net62
*173 net63
*174 net64
*175 net65
*176 net66
*177 net67
*178 net68
*179 net69
*180 net7
*181 net70
*182 net71
*183 net72
*184 net73
*185 net74
*186 net75
*187 net76
*188 net77
*189 net78
*190 net79
*191 net8
*192 net80
*193 net81
*194 net82
*195 net83
*196 net84
*197 net85
*198 net86
*199 net87
*200 net88
*201 net89
*202 net9
*203 net90
*204 net91
*205 net92
*206 net93
*207 net94
*208 net95
*209 net96
*210 net97
*211 net98
*212 net99
*213 spm_inst\.csa0\.hsum2
*214 spm_inst\.csa0\.sc
*215 spm_inst\.csa0\.sum
*216 spm_inst\.csa0\.y
*217 spm_inst\.genblk1\[10\]\.csa\.hsum2
*218 spm_inst\.genblk1\[10\]\.csa\.sc
*219 spm_inst\.genblk1\[10\]\.csa\.sum
*220 spm_inst\.genblk1\[10\]\.csa\.y
*221 spm_inst\.genblk1\[11\]\.csa\.hsum2
*222 spm_inst\.genblk1\[11\]\.csa\.sc
*223 spm_inst\.genblk1\[11\]\.csa\.y
*224 spm_inst\.genblk1\[12\]\.csa\.hsum2
*225 spm_inst\.genblk1\[12\]\.csa\.sc
*226 spm_inst\.genblk1\[12\]\.csa\.y
*227 spm_inst\.genblk1\[13\]\.csa\.hsum2
*228 spm_inst\.genblk1\[13\]\.csa\.sc
*229 spm_inst\.genblk1\[13\]\.csa\.y
*230 spm_inst\.genblk1\[14\]\.csa\.hsum2
*231 spm_inst\.genblk1\[14\]\.csa\.sc
*232 spm_inst\.genblk1\[14\]\.csa\.y
*233 spm_inst\.genblk1\[1\]\.csa\.hsum2
*234 spm_inst\.genblk1\[1\]\.csa\.sc
*235 spm_inst\.genblk1\[1\]\.csa\.y
*236 spm_inst\.genblk1\[2\]\.csa\.hsum2
*237 spm_inst\.genblk1\[2\]\.csa\.sc
*238 spm_inst\.genblk1\[2\]\.csa\.y
*239 spm_inst\.genblk1\[3\]\.csa\.hsum2
*240 spm_inst\.genblk1\[3\]\.csa\.sc
*241 spm_inst\.genblk1\[3\]\.csa\.y
*242 spm_inst\.genblk1\[4\]\.csa\.hsum2
*243 spm_inst\.genblk1\[4\]\.csa\.sc
*244 spm_inst\.genblk1\[4\]\.csa\.y
*245 spm_inst\.genblk1\[5\]\.csa\.hsum2
*246 spm_inst\.genblk1\[5\]\.csa\.sc
*247 spm_inst\.genblk1\[5\]\.csa\.y
*248 spm_inst\.genblk1\[6\]\.csa\.hsum2
*249 spm_inst\.genblk1\[6\]\.csa\.sc
*250 spm_inst\.genblk1\[6\]\.csa\.y
*251 spm_inst\.genblk1\[7\]\.csa\.hsum2
*252 spm_inst\.genblk1\[7\]\.csa\.sc
*253 spm_inst\.genblk1\[7\]\.csa\.y
*254 spm_inst\.genblk1\[8\]\.csa\.hsum2
*255 spm_inst\.genblk1\[8\]\.csa\.sc
*256 spm_inst\.genblk1\[8\]\.csa\.y
*257 spm_inst\.genblk1\[9\]\.csa\.hsum2
*258 spm_inst\.genblk1\[9\]\.csa\.sc
*259 spm_inst\.tcmp\.z
*260 FILLER_0_103
*261 FILLER_0_11
*262 FILLER_0_110
*263 FILLER_0_117
*264 FILLER_0_124
*265 FILLER_0_128
*266 FILLER_0_149
*267 FILLER_0_18
*268 FILLER_0_25
*269 FILLER_0_32
*270 FILLER_0_39
*271 FILLER_0_4
*272 FILLER_0_43
*273 FILLER_0_65
*274 FILLER_0_72
*275 FILLER_0_79
*276 FILLER_0_89
*277 FILLER_0_96
*278 FILLER_10_148
*279 FILLER_10_29
*280 FILLER_10_36
*281 FILLER_10_4
*282 FILLER_10_40
*283 FILLER_10_76
*284 FILLER_11_0
*285 FILLER_11_107
*286 FILLER_11_118
*287 FILLER_11_120
*288 FILLER_11_138
*289 FILLER_11_140
*290 FILLER_11_36
*291 FILLER_11_38
*292 FILLER_11_7
*293 FILLER_11_77
*294 FILLER_11_79
*295 FILLER_12_0
*296 FILLER_12_111
*297 FILLER_12_143
*298 FILLER_12_145
*299 FILLER_12_45
*300 FILLER_12_74
*301 FILLER_12_76
*302 FILLER_13_112
*303 FILLER_13_114
*304 FILLER_13_22
*305 FILLER_13_28
*306 FILLER_13_35
*307 FILLER_13_4
*308 FILLER_13_42
*309 FILLER_13_67
*310 FILLER_13_8
*311 FILLER_14_100
*312 FILLER_14_102
*313 FILLER_14_107
*314 FILLER_14_124
*315 FILLER_14_35
*316 FILLER_14_39
*317 FILLER_14_68
*318 FILLER_15_0
*319 FILLER_15_136
*320 FILLER_15_2
*321 FILLER_15_30
*322 FILLER_15_37
*323 FILLER_15_39
*324 FILLER_15_67
*325 FILLER_16_101
*326 FILLER_16_108
*327 FILLER_16_110
*328 FILLER_16_147
*329 FILLER_16_149
*330 FILLER_16_52
*331 FILLER_16_83
*332 FILLER_17_105
*333 FILLER_17_112
*334 FILLER_17_119
*335 FILLER_17_13
*336 FILLER_17_134
*337 FILLER_17_139
*338 FILLER_17_141
*339 FILLER_17_19
*340 FILLER_17_26
*341 FILLER_17_33
*342 FILLER_17_37
*343 FILLER_17_69
*344 FILLER_17_98
*345 FILLER_18_101
*346 FILLER_18_108
*347 FILLER_18_115
*348 FILLER_18_12
*349 FILLER_18_122
*350 FILLER_18_19
*351 FILLER_18_26
*352 FILLER_18_33
*353 FILLER_18_40
*354 FILLER_18_62
*355 FILLER_18_72
*356 FILLER_18_87
*357 FILLER_18_94
*358 FILLER_1_105
*359 FILLER_1_112
*360 FILLER_1_119
*361 FILLER_1_12
*362 FILLER_1_123
*363 FILLER_1_19
*364 FILLER_1_23
*365 FILLER_1_28
*366 FILLER_1_35
*367 FILLER_1_37
*368 FILLER_1_68
*369 FILLER_1_93
*370 FILLER_1_95
*371 FILLER_2_105
*372 FILLER_2_112
*373 FILLER_2_116
*374 FILLER_2_149
*375 FILLER_2_15
*376 FILLER_2_39
*377 FILLER_2_41
*378 FILLER_2_8
*379 FILLER_3_0
*380 FILLER_3_108
*381 FILLER_3_110
*382 FILLER_3_138
*383 FILLER_3_140
*384 FILLER_3_7
*385 FILLER_3_70
*386 FILLER_4_104
*387 FILLER_4_111
*388 FILLER_4_147
*389 FILLER_4_149
*390 FILLER_4_33
*391 FILLER_4_35
*392 FILLER_4_97
*393 FILLER_5_10
*394 FILLER_5_108
*395 FILLER_5_4
*396 FILLER_5_47
*397 FILLER_5_54
*398 FILLER_5_61
*399 FILLER_5_65
*400 FILLER_5_75
*401 FILLER_6_111
*402 FILLER_6_139
*403 FILLER_6_41
*404 FILLER_6_48
*405 FILLER_6_60
*406 FILLER_6_64
*407 FILLER_7_113
*408 FILLER_7_36
*409 FILLER_7_40
*410 FILLER_7_56
*411 FILLER_7_58
*412 FILLER_8_0
*413 FILLER_8_140
*414 FILLER_8_37
*415 FILLER_8_39
*416 FILLER_8_75
*417 FILLER_9_0
*418 FILLER_9_107
*419 FILLER_9_121
*420 FILLER_9_123
*421 FILLER_9_36
*422 FILLER_9_38
*423 _078_
*424 _079_
*425 _080_
*426 _081_
*427 _082_
*428 _083_
*429 _084_
*430 _085_
*431 _086_
*432 _087_
*433 _088_
*434 _089_
*435 _090_
*436 _091_
*437 _092_
*438 _093_
*439 _094_
*440 _095_
*441 _096_
*442 _097_
*443 _098_
*444 _099_
*445 _100_
*446 _101_
*447 _102_
*448 _103_
*449 _104_
*450 _105_
*451 _106_
*452 _107_
*453 _108_
*454 _109_
*455 _110_
*456 _111_
*457 _112_
*458 _113_
*459 _114_
*460 _115_
*461 _116_
*462 _117_
*463 _118_
*464 _119_
*465 _120_
*466 _121_
*467 _122_
*468 _123_
*469 _124_
*470 _125_
*471 _126_
*472 _127_
*473 _128_
*474 _129_
*475 _130_
*476 _131_
*477 _132_
*478 _133_
*479 _134_
*480 _135_
*481 _136_
*482 _137_
*483 _138_
*484 _139_
*485 _140_
*486 _141_
*487 _142_
*488 _143_
*489 _144_
*490 _145_
*491 _146_
*492 _147_
*493 _148_
*494 _149_
*495 _150_
*496 _151_
*497 _152_
*498 _153_
*499 _154_
*500 _155_
*501 _156_
*502 _157_
*503 _158_
*504 _159_
*505 _160_
*506 _161_
*507 _162_
*508 _163_
*509 _164_
*510 _165_
*511 _166_
*512 _167_
*513 _168_
*514 _169_
*515 _170_
*516 _171_
*517 _172_
*518 _173_
*519 _174_
*520 _175_
*521 _176_
*522 _177_
*523 _178_
*524 _179_
*525 _180_
*526 _181_
*527 _182_
*528 _183_
*529 _184_
*530 _185_
*531 _186_
*532 _187_
*533 _188_
*534 _189_
*535 _190_
*536 _191_
*537 _192_
*538 _193_
*539 _194_
*540 _195_
*541 _196_
*542 _197_
*543 _198_
*544 _199_
*545 _200_
*546 _201_
*547 _202_
*548 _219_
*549 clkbuf_0_clk_i
*550 clkbuf_3_0__f_clk_i
*551 clkbuf_3_1__f_clk_i
*552 clkbuf_3_2__f_clk_i
*553 clkbuf_3_3__f_clk_i
*554 clkbuf_3_4__f_clk_i
*555 clkbuf_3_5__f_clk_i
*556 clkbuf_3_6__f_clk_i
*557 clkbuf_3_7__f_clk_i
*558 fanout20
*559 fanout21
*560 fanout22
*561 fanout23
*562 fanout24
*563 fanout25
*564 fanout26
*565 hold100
*566 hold101
*567 hold102
*568 hold42
*569 hold43
*570 hold44
*571 hold45
*572 hold46
*573 hold47
*574 hold48
*575 hold49
*576 hold50
*577 hold51
*578 hold52
*579 hold53
*580 hold54
*581 hold55
*582 hold56
*583 hold57
*584 hold58
*585 hold59
*586 hold60
*587 hold61
*588 hold62
*589 hold63
*590 hold64
*591 hold65
*592 hold66
*593 hold67
*594 hold68
*595 hold69
*596 hold70
*597 hold71
*598 hold72
*599 hold73
*600 hold74
*601 hold75
*602 hold76
*603 hold77
*604 hold78
*605 hold79
*606 hold80
*607 hold81
*608 hold82
*609 hold83
*610 hold84
*611 hold85
*612 hold86
*613 hold87
*614 hold88
*615 hold89
*616 hold90
*617 hold91
*618 hold92
*619 hold93
*620 hold94
*621 hold95
*622 hold96
*623 hold97
*624 hold98
*625 hold99
*626 input1
*627 input10
*628 input11
*629 input12
*630 input13
*631 input14
*632 input15
*633 input16
*634 input17
*635 input18
*636 input2
*637 input3
*638 input4
*639 input5
*640 input6
*641 input7
*642 input8
*643 input9
*644 output19
*645 user_project_example
*646 user_project_example_27
*647 user_project_example_28
*648 user_project_example_29
*649 user_project_example_30
*650 user_project_example_31
*651 user_project_example_32
*652 user_project_example_33
*653 user_project_example_34
*654 user_project_example_35
*655 user_project_example_36
*656 user_project_example_37
*657 user_project_example_38
*658 user_project_example_39
*659 user_project_example_40
*660 user_project_example_41

*PORTS
clk_i I
rst_ni I
ui_PAD2CORE[0] I
ui_PAD2CORE[10] I
ui_PAD2CORE[11] I
ui_PAD2CORE[12] I
ui_PAD2CORE[13] I
ui_PAD2CORE[14] I
ui_PAD2CORE[15] I
ui_PAD2CORE[16] I
ui_PAD2CORE[1] I
ui_PAD2CORE[2] I
ui_PAD2CORE[3] I
ui_PAD2CORE[4] I
ui_PAD2CORE[5] I
ui_PAD2CORE[6] I
ui_PAD2CORE[7] I
ui_PAD2CORE[8] I
ui_PAD2CORE[9] I
uo_CORE2PAD[0] O
uo_CORE2PAD[10] O
uo_CORE2PAD[11] O
uo_CORE2PAD[12] O
uo_CORE2PAD[13] O
uo_CORE2PAD[14] O
uo_CORE2PAD[15] O
uo_CORE2PAD[16] O
uo_CORE2PAD[1] O
uo_CORE2PAD[2] O
uo_CORE2PAD[3] O
uo_CORE2PAD[4] O
uo_CORE2PAD[5] O
uo_CORE2PAD[6] O
uo_CORE2PAD[7] O
uo_CORE2PAD[8] O
uo_CORE2PAD[9] O

*D_NET *3 0.00699309
*CONN
*P clk_i I
*I *549:A I *D sg13g2_buf_16
*CAP
1 clk_i 0.00175361
2 *549:A 0.00012991
3 *3:18 0.000160525
4 *3:14 0.00161303
5 *3:8 0.00333602
6 *549:A *73:12 0
7 *549:A *132:8 0
8 *3:8 uo_CORE2PAD[10] 0
9 *3:8 *534:CLK 0
10 *3:8 *561:A 0
11 *3:8 *4:11 0
12 *3:8 *49:8 0
13 *3:8 *55:12 0
14 *3:8 *140:20 0
15 *3:8 *147:25 0
16 *3:8 *147:33 0
17 *3:14 *531:CLK 0
18 *3:14 *535:CLK 0
19 *3:14 *562:A 0
20 *3:14 *588:A 0
21 *3:14 *590:A 0
22 *3:14 *117:13 0
23 *3:14 *121:12 0
24 *3:14 *121:30 0
25 *3:14 *147:49 0
26 *3:14 *167:41 0
27 *3:14 *247:10 0
28 *3:14 *250:10 0
29 *3:14 *253:18 0
30 *3:14 *253:26 0
31 *3:18 *132:8 0
*RES
1 clk_i *3:8 38.7357 
2 *3:8 *3:14 35.5015 
3 *3:14 *3:18 20.3193 
4 *3:18 *549:A 21.1845 
*END

*D_NET *4 0.00227926
*CONN
*P rst_ni I
*I *626:A I *D sg13g2_buf_1
*CAP
1 rst_ni 0.00109198
2 *626:A 0
3 *4:11 0.00109198
4 *4:11 *508:B 0
5 *4:11 *564:A 0
6 *4:11 *568:A 4.77425e-05
7 *4:11 *636:A 0
8 *4:11 *55:12 0
9 *4:11 *141:16 0
10 *4:11 *144:14 0
11 *4:11 *147:8 4.75442e-05
12 *3:8 *4:11 0
*RES
1 rst_ni *4:11 30.1661 
2 *4:11 *626:A 20 
*END

*D_NET *5 0.00220793
*CONN
*P ui_PAD2CORE[0] I
*I *636:A I *D sg13g2_buf_1
*CAP
1 ui_PAD2CORE[0] 0.000911603
2 *636:A 0.000911603
3 *636:A uo_CORE2PAD[10] 0
4 *636:A *561:A 0.000112458
5 *636:A *568:A 0.0001447
6 *636:A *143:10 8.0017e-05
7 *636:A *144:6 0
8 *636:A *144:14 0
9 *636:A *147:8 4.75442e-05
10 *4:11 *636:A 0
*RES
1 ui_PAD2CORE[0] *636:A 49.6511 
*END

*D_NET *6 0.00151883
*CONN
*P ui_PAD2CORE[10] I
*I *637:A I *D sg13g2_buf_1
*CAP
1 ui_PAD2CORE[10] 0.000759417
2 *637:A 0.000759417
3 *637:A *638:A 0
*RES
1 ui_PAD2CORE[10] *637:A 29.27 
*END

*D_NET *7 0.00162824
*CONN
*P ui_PAD2CORE[11] I
*I *638:A I *D sg13g2_buf_1
*CAP
1 ui_PAD2CORE[11] 0.000814119
2 *638:A 0.000814119
3 *637:A *638:A 0
*RES
1 ui_PAD2CORE[11] *638:A 30.197 
*END

*D_NET *8 0.00176112
*CONN
*P ui_PAD2CORE[12] I
*I *639:A I *D sg13g2_buf_1
*CAP
1 ui_PAD2CORE[12] 0.000454375
2 *639:A 0.000369775
3 *8:11 0.000824149
4 *639:A *446:A2 0.000112826
*RES
1 ui_PAD2CORE[12] *8:11 45.5826 
2 *8:11 *639:A 24.429 
*END

*D_NET *9 0.000760969
*CONN
*P ui_PAD2CORE[13] I
*I *640:A I *D sg13g2_buf_1
*CAP
1 ui_PAD2CORE[13] 0.000372784
2 *640:A 0.000372784
3 *640:A *429:A 0
4 *640:A *641:A 1.54008e-05
*RES
1 ui_PAD2CORE[13] *640:A 43.6977 
*END

*D_NET *10 0.00097931
*CONN
*P ui_PAD2CORE[14] I
*I *641:A I *D sg13g2_buf_1
*CAP
1 ui_PAD2CORE[14] 0.000481955
2 *641:A 0.000481955
3 *641:A *429:A 0
4 *641:A *435:B 0
5 *640:A *641:A 1.54008e-05
*RES
1 ui_PAD2CORE[14] *641:A 45.0985 
*END

*D_NET *11 0.000934696
*CONN
*P ui_PAD2CORE[15] I
*I *642:A I *D sg13g2_buf_1
*CAP
1 ui_PAD2CORE[15] 0.000467348
2 *642:A 0.000467348
3 *642:A *423:B 0
4 *642:A *634:A 0
5 *642:A *141:34 0
*RES
1 ui_PAD2CORE[15] *642:A 44.5629 
*END

*D_NET *12 0.00066702
*CONN
*P ui_PAD2CORE[16] I
*I *643:A I *D sg13g2_buf_1
*CAP
1 ui_PAD2CORE[16] 0.00033351
2 *643:A 0.00033351
3 *643:A *507:B 0
4 *643:A *633:A 0
5 *643:A *141:16 0
*RES
1 ui_PAD2CORE[16] *643:A 44.1303 
*END

*D_NET *13 0.0035073
*CONN
*P ui_PAD2CORE[1] I
*I *627:A I *D sg13g2_buf_1
*CAP
1 ui_PAD2CORE[1] 0.000980772
2 *627:A 0
3 *13:15 0.000980772
4 *13:15 uo_CORE2PAD[0] 0
5 *13:15 *502:A 0.000532405
6 *13:15 *510:A 0
7 *13:15 *510:B 0
8 *13:15 *511:B 0
9 *13:15 *597:A 0.000241753
10 *13:15 *100:12 0.000241052
11 *13:15 *181:8 7.61961e-05
12 *13:15 *214:8 0.000454344
*RES
1 ui_PAD2CORE[1] *13:15 32.1154 
2 *13:15 *627:A 20 
*END

*D_NET *14 0.00399872
*CONN
*P ui_PAD2CORE[2] I
*I *628:A I *D sg13g2_buf_1
*CAP
1 ui_PAD2CORE[2] 0.000476444
2 *628:A 0
3 *14:15 0.000986904
4 *14:11 0.00146335
5 *14:11 *504:A 0
6 *14:11 *194:10 0
7 *14:11 *195:12 0
8 *14:15 *128:10 0.000724753
9 *14:15 *142:38 0.00034727
*RES
1 ui_PAD2CORE[2] *14:11 45.5646 
2 *14:11 *14:15 31.9686 
3 *14:15 *628:A 20 
*END

*D_NET *15 0.00426999
*CONN
*P ui_PAD2CORE[3] I
*I *629:A I *D sg13g2_buf_1
*CAP
1 ui_PAD2CORE[3] 0.002135
2 *629:A 0
3 *15:13 0.002135
4 *15:13 *498:A 0
5 *15:13 *500:A1 0
6 *15:13 *528:RESET_B 0
7 *15:13 *529:RESET_B 0
8 *15:13 *562:A 0
9 *15:13 *635:A 0
10 *15:13 *46:8 0
11 *15:13 *68:10 0
12 *15:13 *70:8 0
13 *15:13 *91:10 0
14 *15:13 *164:8 0
15 *15:13 *166:8 0
16 *15:13 *253:10 0
17 *15:13 *255:8 0
*RES
1 ui_PAD2CORE[3] *15:13 42.951 
2 *15:13 *629:A 20 
*END

*D_NET *16 0.00137588
*CONN
*P ui_PAD2CORE[4] I
*I *630:A I *D sg13g2_buf_1
*CAP
1 ui_PAD2CORE[4] 0.000687938
2 *630:A 0.000687938
3 *630:A uo_CORE2PAD[13] 0
4 *630:A *557:A 0
5 *630:A *92:10 0
6 *630:A *117:158 0
7 *630:A *238:19 0
*RES
1 ui_PAD2CORE[4] *630:A 46.9242 
*END

*D_NET *17 0.00158694
*CONN
*P ui_PAD2CORE[5] I
*I *631:A I *D sg13g2_buf_1
*CAP
1 ui_PAD2CORE[5] 0.000793472
2 *631:A 0.000793472
3 *631:A *483:B 0
*RES
1 ui_PAD2CORE[5] *631:A 29.8674 
*END

*D_NET *18 0.00165336
*CONN
*P ui_PAD2CORE[6] I
*I *632:A I *D sg13g2_buf_1
*CAP
1 ui_PAD2CORE[6] 0.000826678
2 *632:A 0.000826678
3 *632:A *477:B 0
*RES
1 ui_PAD2CORE[6] *632:A 30.1146 
*END

*D_NET *19 0.000750359
*CONN
*P ui_PAD2CORE[7] I
*I *633:A I *D sg13g2_buf_1
*CAP
1 ui_PAD2CORE[7] 0.000335456
2 *633:A 0.000335456
3 *633:A *471:B 7.94462e-05
4 *633:A *141:22 0
5 *643:A *633:A 0
*RES
1 ui_PAD2CORE[7] *633:A 44.1303 
*END

*D_NET *20 0.00197786
*CONN
*P ui_PAD2CORE[8] I
*I *634:A I *D sg13g2_buf_1
*CAP
1 ui_PAD2CORE[8] 0.000697901
2 *634:A 0.000697901
3 *634:A *465:B 0.000274785
4 *634:A *580:A 0.000307269
5 *642:A *634:A 0
*RES
1 ui_PAD2CORE[8] *634:A 47.5911 
*END

*D_NET *21 0.00162838
*CONN
*P ui_PAD2CORE[9] I
*I *635:A I *D sg13g2_buf_1
*CAP
1 ui_PAD2CORE[9] 0.000612057
2 *635:A 0.000612057
3 *635:A *500:A2 0
4 *635:A *92:10 0.000404267
5 *635:A *138:10 0
6 *15:13 *635:A 0
*RES
1 ui_PAD2CORE[9] *635:A 46.162 
*END

*D_NET *22 0.00138753
*CONN
*P uo_CORE2PAD[0] O
*I *644:X O *D sg13g2_buf_1
*CAP
1 uo_CORE2PAD[0] 0.000693764
2 *644:X 0.000693764
3 uo_CORE2PAD[0] uo_CORE2PAD[1] 0
4 uo_CORE2PAD[0] *510:A 0
5 uo_CORE2PAD[0] *515:B1 0
6 uo_CORE2PAD[0] *644:A 0
7 uo_CORE2PAD[0] *39:10 0
8 *13:15 uo_CORE2PAD[0] 0
*RES
1 *644:X uo_CORE2PAD[0] 47.707 
*END

*D_NET *23 0.00103982
*CONN
*P uo_CORE2PAD[10] O
*I *653:L_LO O *D sg13g2_tielo
*CAP
1 uo_CORE2PAD[10] 0.000479798
2 *653:L_LO 0.000479798
3 uo_CORE2PAD[10] *561:A 0
4 uo_CORE2PAD[10] *144:6 8.02269e-05
5 *636:A uo_CORE2PAD[10] 0
6 *3:8 uo_CORE2PAD[10] 0
*RES
1 *653:L_LO uo_CORE2PAD[10] 45.7474 
*END

*D_NET *24 0.00130735
*CONN
*P uo_CORE2PAD[11] O
*I *654:L_LO O *D sg13g2_tielo
*CAP
1 uo_CORE2PAD[11] 0.000653676
2 *654:L_LO 0.000653676
3 uo_CORE2PAD[11] uo_CORE2PAD[14] 0
4 uo_CORE2PAD[11] uo_CORE2PAD[16] 0
*RES
1 *654:L_LO uo_CORE2PAD[11] 46.7568 
*END

*D_NET *25 0.000854053
*CONN
*P uo_CORE2PAD[12] O
*I *655:L_LO O *D sg13g2_tielo
*CAP
1 uo_CORE2PAD[12] 0.000427027
2 *655:L_LO 0.000427027
3 uo_CORE2PAD[12] uo_CORE2PAD[16] 0
4 uo_CORE2PAD[12] uo_CORE2PAD[7] 0
*RES
1 *655:L_LO uo_CORE2PAD[12] 43.5844 
*END

*D_NET *26 0.00180059
*CONN
*P uo_CORE2PAD[13] O
*I *656:L_LO O *D sg13g2_tielo
*CAP
1 uo_CORE2PAD[13] 0.000730813
2 *656:L_LO 0.000730813
3 uo_CORE2PAD[13] uo_CORE2PAD[6] 0
4 uo_CORE2PAD[13] uo_CORE2PAD[8] 0
5 uo_CORE2PAD[13] *92:10 0.00033896
6 *630:A uo_CORE2PAD[13] 0
*RES
1 *656:L_LO uo_CORE2PAD[13] 47.6761 
*END

*D_NET *27 0.00121487
*CONN
*P uo_CORE2PAD[14] O
*I *657:L_LO O *D sg13g2_tielo
*CAP
1 uo_CORE2PAD[14] 0.000607437
2 *657:L_LO 0.000607437
3 uo_CORE2PAD[14] uo_CORE2PAD[16] 0
4 uo_CORE2PAD[11] uo_CORE2PAD[14] 0
*RES
1 *657:L_LO uo_CORE2PAD[14] 45.2118 
*END

*D_NET *28 0.00191274
*CONN
*P uo_CORE2PAD[15] O
*I *658:L_LO O *D sg13g2_tielo
*CAP
1 uo_CORE2PAD[15] 0.000900071
2 *658:L_LO 0.000900071
3 uo_CORE2PAD[15] uo_CORE2PAD[3] 0
4 uo_CORE2PAD[15] uo_CORE2PAD[4] 0
5 uo_CORE2PAD[15] uo_CORE2PAD[6] 0
6 uo_CORE2PAD[15] uo_CORE2PAD[8] 0
7 uo_CORE2PAD[15] *489:B 0.000112596
8 uo_CORE2PAD[15] *31:14 0
9 uo_CORE2PAD[15] *164:38 0
*RES
1 *658:L_LO uo_CORE2PAD[15] 47.3877 
*END

*D_NET *29 0.00112543
*CONN
*P uo_CORE2PAD[16] O
*I *659:L_LO O *D sg13g2_tielo
*CAP
1 uo_CORE2PAD[16] 0.000562717
2 *659:L_LO 0.000562717
3 uo_CORE2PAD[16] uo_CORE2PAD[7] 0
4 uo_CORE2PAD[11] uo_CORE2PAD[16] 0
5 uo_CORE2PAD[12] uo_CORE2PAD[16] 0
6 uo_CORE2PAD[14] uo_CORE2PAD[16] 0
*RES
1 *659:L_LO uo_CORE2PAD[16] 44.63 
*END

*D_NET *30 0.0021298
*CONN
*P uo_CORE2PAD[1] O
*I *660:L_HI O *D sg13g2_tiehi
*CAP
1 uo_CORE2PAD[1] 0.000680537
2 *660:L_HI 0.000262084
3 *30:10 0.000942621
4 uo_CORE2PAD[1] uo_CORE2PAD[5] 0
5 uo_CORE2PAD[1] *39:10 0
6 uo_CORE2PAD[1] *102:10 0
7 *30:10 *511:A 0.000147555
8 *30:10 *548:A 0
9 *30:10 *181:23 9.70004e-05
10 uo_CORE2PAD[0] uo_CORE2PAD[1] 0
*RES
1 *660:L_HI *30:10 42.8325 
2 *30:10 uo_CORE2PAD[1] 7.31558 
*END

*D_NET *31 0.00342963
*CONN
*P uo_CORE2PAD[2] O
*I *645:L_LO O *D sg13g2_tielo
*CAP
1 uo_CORE2PAD[2] 0.000397429
2 *645:L_LO 0.000634333
3 *31:14 0.00103176
4 uo_CORE2PAD[2] uo_CORE2PAD[6] 0
5 uo_CORE2PAD[2] uo_CORE2PAD[8] 0
6 *31:14 uo_CORE2PAD[3] 0
7 *31:14 uo_CORE2PAD[4] 0.000242098
8 *31:14 uo_CORE2PAD[6] 0.000235055
9 *31:14 uo_CORE2PAD[8] 0
10 *31:14 *489:B 0
11 *31:14 *494:A1 0
12 *31:14 *87:8 0.000176105
13 *31:14 *89:10 0.000712844
14 uo_CORE2PAD[15] *31:14 0
*RES
1 *645:L_LO *31:14 47.8589 
2 *31:14 uo_CORE2PAD[2] 3.11317 
*END

*D_NET *32 0.00261317
*CONN
*P uo_CORE2PAD[3] O
*I *646:L_LO O *D sg13g2_tielo
*CAP
1 uo_CORE2PAD[3] 0.00101435
2 *646:L_LO 0.000292234
3 *32:10 0.00130659
4 uo_CORE2PAD[3] uo_CORE2PAD[4] 0
5 uo_CORE2PAD[3] uo_CORE2PAD[6] 0
6 uo_CORE2PAD[3] *489:A 0
7 uo_CORE2PAD[3] *89:10 0
8 uo_CORE2PAD[3] *240:12 0
9 *32:10 uo_CORE2PAD[4] 0
10 *32:10 *494:B1 0
11 *32:10 *604:A 0
12 uo_CORE2PAD[15] uo_CORE2PAD[3] 0
13 *31:14 uo_CORE2PAD[3] 0
*RES
1 *646:L_LO *32:10 43.0797 
2 *32:10 uo_CORE2PAD[3] 8.79877 
*END

*D_NET *33 0.00245209
*CONN
*P uo_CORE2PAD[4] O
*I *647:L_LO O *D sg13g2_tielo
*CAP
1 uo_CORE2PAD[4] 0.000846592
2 *647:L_LO 0.000846592
3 uo_CORE2PAD[4] *489:A 0.000128248
4 uo_CORE2PAD[4] *494:A1 4.77699e-05
5 uo_CORE2PAD[4] *164:38 0.00034079
6 uo_CORE2PAD[15] uo_CORE2PAD[4] 0
7 uo_CORE2PAD[3] uo_CORE2PAD[4] 0
8 *31:14 uo_CORE2PAD[4] 0.000242098
9 *32:10 uo_CORE2PAD[4] 0
*RES
1 *647:L_LO uo_CORE2PAD[4] 49.0357 
*END

*D_NET *34 0.00183627
*CONN
*P uo_CORE2PAD[5] O
*I *648:L_LO O *D sg13g2_tielo
*CAP
1 uo_CORE2PAD[5] 0.000918133
2 *648:L_LO 0.000918133
3 uo_CORE2PAD[5] *548:A 0
4 uo_CORE2PAD[5] *139:8 0
5 uo_CORE2PAD[5] *215:8 0
6 uo_CORE2PAD[1] uo_CORE2PAD[5] 0
*RES
1 *648:L_LO uo_CORE2PAD[5] 49.3035 
*END

*D_NET *35 0.00231792
*CONN
*P uo_CORE2PAD[6] O
*I *649:L_LO O *D sg13g2_tielo
*CAP
1 uo_CORE2PAD[6] 0.000768546
2 *649:L_LO 0.000768546
3 uo_CORE2PAD[6] uo_CORE2PAD[8] 0.000305395
4 uo_CORE2PAD[6] *496:B 0.000240377
5 uo_CORE2PAD[13] uo_CORE2PAD[6] 0
6 uo_CORE2PAD[15] uo_CORE2PAD[6] 0
7 uo_CORE2PAD[2] uo_CORE2PAD[6] 0
8 uo_CORE2PAD[3] uo_CORE2PAD[6] 0
9 *31:14 uo_CORE2PAD[6] 0.000235055
*RES
1 *649:L_LO uo_CORE2PAD[6] 47.3671 
*END

*D_NET *36 0.00112153
*CONN
*P uo_CORE2PAD[7] O
*I *650:L_LO O *D sg13g2_tielo
*CAP
1 uo_CORE2PAD[7] 0.000560765
2 *650:L_LO 0.000560765
3 uo_CORE2PAD[7] uo_CORE2PAD[9] 0
4 uo_CORE2PAD[12] uo_CORE2PAD[7] 0
5 uo_CORE2PAD[16] uo_CORE2PAD[7] 0
*RES
1 *650:L_LO uo_CORE2PAD[7] 45.0058 
*END

*D_NET *37 0.00224445
*CONN
*P uo_CORE2PAD[8] O
*I *651:L_LO O *D sg13g2_tielo
*CAP
1 uo_CORE2PAD[8] 0.000817452
2 *651:L_LO 0.000817452
3 uo_CORE2PAD[8] *491:A 0.000181192
4 uo_CORE2PAD[8] *614:A 4.77425e-05
5 uo_CORE2PAD[8] *164:38 0
6 uo_CORE2PAD[8] *240:19 7.52149e-05
7 uo_CORE2PAD[13] uo_CORE2PAD[8] 0
8 uo_CORE2PAD[15] uo_CORE2PAD[8] 0
9 uo_CORE2PAD[2] uo_CORE2PAD[8] 0
10 uo_CORE2PAD[6] uo_CORE2PAD[8] 0.000305395
11 *31:14 uo_CORE2PAD[8] 0
*RES
1 *651:L_LO uo_CORE2PAD[8] 47.2641 
*END

*D_NET *38 0.000692624
*CONN
*P uo_CORE2PAD[9] O
*I *652:L_LO O *D sg13g2_tielo
*CAP
1 uo_CORE2PAD[9] 0.000346312
2 *652:L_LO 0.000346312
3 uo_CORE2PAD[7] uo_CORE2PAD[9] 0
*RES
1 *652:L_LO uo_CORE2PAD[9] 43.4814 
*END

*D_NET *39 0.00322316
*CONN
*I *598:A I *D sg13g2_dlygate4sd3_1
*I *515:Y O *D sg13g2_o21ai_1
*CAP
1 *598:A 0.000352962
2 *515:Y 0.000259623
3 *39:10 0.000612585
4 *598:A *547:CLK 0.000306809
5 *598:A *123:8 0
6 *598:A *181:23 0
7 *598:A *235:24 0.000339326
8 *39:10 *514:A 0.00056058
9 *39:10 *515:B1 1.54282e-05
10 *39:10 *515:A1 0.000161447
11 *39:10 *102:10 0.000614396
12 *39:10 *215:8 0
13 uo_CORE2PAD[0] *39:10 0
14 uo_CORE2PAD[1] *39:10 0
*RES
1 *515:Y *39:10 44.3775 
2 *39:10 *598:A 43.7801 
*END

*D_NET *40 0.00135101
*CONN
*I *595:A I *D sg13g2_dlygate4sd3_1
*I *452:Y O *D sg13g2_o21ai_1
*CAP
1 *595:A 0
2 *452:Y 0.000367255
3 *40:8 0.000367255
4 *40:8 *220:29 0.0006165
*RES
1 *452:Y *40:8 45.047 
2 *40:8 *595:A 40 
*END

*D_NET *41 0.00112701
*CONN
*I *613:A I *D sg13g2_dlygate4sd3_1
*I *446:Y O *D sg13g2_o21ai_1
*CAP
1 *613:A 0.000563506
2 *446:Y 0.000563506
3 *613:A *442:B 0
4 *613:A *444:B 0
5 *613:A *446:B1 0
6 *613:A *446:A1 0
7 *613:A *446:A2 0
8 *613:A *523:RESET_B 0
9 *613:A *523:D 0
10 *613:A *58:10 0
11 *613:A *223:8 0
*RES
1 *446:Y *613:A 45.1724 
*END

*D_NET *42 0.00112017
*CONN
*I *574:A I *D sg13g2_dlygate4sd3_1
*I *440:Y O *D sg13g2_o21ai_1
*CAP
1 *574:A 0.000552359
2 *440:Y 0.000552359
3 *574:A *436:A 1.54556e-05
4 *574:A *438:A 0
5 *574:A *440:B1 0
6 *574:A *440:A1 0
7 *574:A *440:A2 0
8 *574:A *520:CLK 0
9 *574:A *573:A 0
10 *574:A *141:78 0
11 *574:A *154:24 0
*RES
1 *440:Y *574:A 45.5208 
*END

*D_NET *43 0.00112708
*CONN
*I *580:A I *D sg13g2_dlygate4sd3_1
*I *434:Y O *D sg13g2_o21ai_1
*CAP
1 *580:A 0.000221923
2 *434:Y 0.000132427
3 *43:10 0.00035435
4 *580:A *465:B 4.77702e-05
5 *43:10 *434:B1 1.54556e-05
6 *43:10 *434:A1 0
7 *43:10 *465:B 4.78853e-05
8 *634:A *580:A 0.000307269
*RES
1 *434:Y *43:10 41.3802 
2 *43:10 *580:A 42.266 
*END

*D_NET *44 0.00116586
*CONN
*I *571:A I *D sg13g2_dlygate4sd3_1
*I *428:Y O *D sg13g2_o21ai_1
*CAP
1 *571:A 0.000193078
2 *428:Y 0.000116716
3 *44:8 0.000309794
4 *571:A *428:B1 0
5 *571:A *516:CLK 0
6 *571:A *104:31 0.000208265
7 *571:A *144:20 0.000338005
8 *44:8 *106:8 0
*RES
1 *428:Y *44:8 41.0918 
2 *44:8 *571:A 42.266 
*END

*D_NET *45 0.00298669
*CONN
*I *610:A I *D sg13g2_dlygate4sd3_1
*I *506:Y O *D sg13g2_o21ai_1
*CAP
1 *610:A 0.000809032
2 *506:Y 0.000176226
3 *45:8 0.000985258
4 *610:A *504:B 0
5 *610:A *506:B1 0
6 *610:A *565:A 1.54008e-05
7 *610:A *608:A 0.000241134
8 *610:A *96:6 0.000759636
9 *610:A *96:14 0
10 *610:A *142:71 0
11 *610:A *235:14 0
*RES
1 *506:Y *45:8 41.5862 
2 *45:8 *610:A 48.24 
*END

*D_NET *46 0.00148976
*CONN
*I *583:A I *D sg13g2_dlygate4sd3_1
*I *500:Y O *D sg13g2_o21ai_1
*CAP
1 *583:A 0.00019404
2 *500:Y 0.000183629
3 *46:8 0.000377669
4 *583:A *498:A 0
5 *583:A *203:6 0.000339353
6 *46:8 *500:A1 0.000395067
7 *15:13 *46:8 0
*RES
1 *500:Y *46:8 42.575 
2 *46:8 *583:A 42.266 
*END

*D_NET *47 9.50856e-05
*CONN
*I *604:A I *D sg13g2_dlygate4sd3_1
*I *494:Y O *D sg13g2_o21ai_1
*CAP
1 *604:A 4.75428e-05
2 *494:Y 4.75428e-05
3 *32:10 *604:A 0
*RES
1 *494:Y *604:A 40.5974 
*END

*D_NET *48 0.00108433
*CONN
*I *577:A I *D sg13g2_dlygate4sd3_1
*I *488:Y O *D sg13g2_o21ai_1
*CAP
1 *577:A 0
2 *488:Y 0.000344798
3 *48:8 0.000344798
4 *48:8 *146:10 0.000394739
5 *48:8 *244:14 0
*RES
1 *488:Y *48:8 43.5638 
2 *48:8 *577:A 40 
*END

*D_NET *49 0.000670392
*CONN
*I *592:A I *D sg13g2_dlygate4sd3_1
*I *482:Y O *D sg13g2_o21ai_1
*CAP
1 *592:A 5.18056e-05
2 *482:Y 0.00028339
3 *49:8 0.000335196
4 *592:A *535:D 0
5 *592:A *79:16 0
6 *592:A *147:33 0
7 *49:8 *534:CLK 0
8 *3:8 *49:8 0
*RES
1 *482:Y *49:8 43.0694 
2 *49:8 *592:A 40.5356 
*END

*D_NET *50 0.000767843
*CONN
*I *589:A I *D sg13g2_dlygate4sd3_1
*I *476:Y O *D sg13g2_o21ai_1
*CAP
1 *589:A 0
2 *476:Y 0.000132319
3 *50:8 0.000132319
4 *50:8 *533:CLK 0
5 *50:8 *172:8 0.000503206
*RES
1 *476:Y *50:8 42.3278 
2 *50:8 *589:A 40 
*END

*D_NET *51 0.000646965
*CONN
*I *586:A I *D sg13g2_dlygate4sd3_1
*I *470:Y O *D sg13g2_o21ai_1
*CAP
1 *586:A 0
2 *470:Y 0.000232471
3 *51:8 0.000232471
4 *51:8 *470:A2 0
5 *51:8 *168:14 0.000182023
*RES
1 *470:Y *51:8 42.3278 
2 *51:8 *586:A 40 
*END

*D_NET *52 0.000913084
*CONN
*I *601:A I *D sg13g2_dlygate4sd3_1
*I *464:Y O *D sg13g2_o21ai_1
*CAP
1 *601:A 0.000208799
2 *464:Y 7.43748e-05
3 *52:8 0.000283174
4 *601:A *464:A1 0.000112426
5 *601:A *562:A 0
6 *601:A *147:49 0
7 *52:8 *84:8 0
8 *52:8 *121:8 0.000234311
*RES
1 *464:Y *52:8 41.0918 
2 *52:8 *601:A 42.266 
*END

*D_NET *53 0.00114444
*CONN
*I *607:A I *D sg13g2_dlygate4sd3_1
*I *458:Y O *D sg13g2_o21ai_1
*CAP
1 *607:A 0.00013524
2 *458:Y 9.47483e-05
3 *53:8 0.000229989
4 *607:A *457:A 0
5 *607:A *458:B1 0
6 *607:A *530:CLK 0
7 *607:A *63:8 4.75151e-05
8 *53:8 *457:A 7.62389e-05
9 *53:8 *458:A1 0.000161555
10 *53:8 *142:38 0.000399155
*RES
1 *458:Y *53:8 41.8334 
2 *53:8 *607:A 41.4008 
*END

*D_NET *54 0.000345933
*CONN
*I *544:D I *D sg13g2_dfrbpq_1
*I *509:Y O *D sg13g2_xnor2_1
*CAP
1 *544:D 0.000172967
2 *509:Y 0.000172967
3 *544:D *509:B 0
4 *544:D *141:16 0
5 *544:D *141:22 0
*RES
1 *509:Y *544:D 41.5347 
*END

*D_NET *55 0.00265566
*CONN
*I *545:D I *D sg13g2_dfrbpq_1
*I *508:Y O *D sg13g2_nand2b_1
*CAP
1 *545:D 0
2 *508:Y 0.000749345
3 *55:12 0.000749345
4 *55:12 *508:B 0
5 *55:12 *508:A_N 0.000241452
6 *55:12 *509:A 0.000177442
7 *55:12 *534:CLK 0.000396126
8 *55:12 *564:A 0
9 *55:12 *120:8 0
10 *55:12 *120:12 0.000341949
11 *55:12 *140:12 0
12 *55:12 *140:20 0
13 *55:12 *141:114 0
14 *55:12 *144:14 0
15 *3:8 *55:12 0
16 *4:11 *55:12 0
*RES
1 *508:Y *55:12 49.3627 
2 *55:12 *545:D 40 
*END

*D_NET *56 0.00101972
*CONN
*I *612:A I *D sg13g2_dlygate4sd3_1
*I *442:Y O *D sg13g2_nand2_1
*CAP
1 *612:A 0
2 *442:Y 0.000230085
3 *56:10 0.000230085
4 *56:10 *442:B 0.000242213
5 *56:10 *197:8 0.000242213
6 *56:10 *223:23 7.51285e-05
*RES
1 *442:Y *56:10 42.9561 
2 *56:10 *612:A 40 
*END

*D_NET *57 0.00249466
*CONN
*I *446:A2 I *D sg13g2_o21ai_1
*I *443:Y O *D sg13g2_nor2_1
*CAP
1 *446:A2 0.000611663
2 *443:Y 0.000101188
3 *57:8 0.000712851
4 *446:A2 *444:A 0
5 *446:A2 *445:B 0.000242071
6 *446:A2 *446:B1 1.54556e-05
7 *446:A2 *446:A1 0.000354809
8 *446:A2 *522:D 0
9 *446:A2 *523:RESET_B 0
10 *446:A2 *523:D 0
11 *446:A2 *58:10 0
12 *446:A2 *226:27 0
13 *57:8 *197:32 0.0003438
14 *613:A *446:A2 0
15 *639:A *446:A2 0.000112826
*RES
1 *443:Y *57:8 41.5862 
2 *57:8 *446:A2 46.2489 
*END

*D_NET *58 0.0011507
*CONN
*I *445:B I *D sg13g2_xnor2_1
*I *444:X O *D sg13g2_xor2_1
*CAP
1 *445:B 0.000148774
2 *444:X 0.000305542
3 *58:10 0.000454317
4 *445:B *441:B 0
5 *58:10 *444:B 0
6 *58:10 *444:A 0
7 *446:A2 *445:B 0.000242071
8 *446:A2 *58:10 0
9 *613:A *58:10 0
*RES
1 *444:X *58:10 43.0488 
2 *58:10 *445:B 41.6171 
*END

*D_NET *59 0.00325357
*CONN
*I *452:A1 I *D sg13g2_o21ai_1
*I *451:A I *D sg13g2_xnor2_1
*I *447:Y O *D sg13g2_nand2_1
*CAP
1 *452:A1 0
2 *451:A 0
3 *447:Y 0.000129931
4 *59:21 0.000797279
5 *59:8 0.000927209
6 *59:8 *149:8 0
7 *59:8 *179:10 0
8 *59:21 *449:A 0.00032018
9 *59:21 *450:A 0.00023464
10 *59:21 *452:A2 8.01118e-05
11 *59:21 *593:A 0.000209641
12 *59:21 *62:8 0.000287672
13 *59:21 *145:36 0
14 *59:21 *149:8 0
15 *59:21 *177:8 0.000266907
16 *59:21 *179:10 0
*RES
1 *447:Y *59:8 41.5862 
2 *59:8 *451:A 40 
3 *59:8 *59:21 30.5266 
4 *59:21 *452:A1 20 
*END

*D_NET *60 0.0011786
*CONN
*I *594:A I *D sg13g2_dlygate4sd3_1
*I *448:Y O *D sg13g2_nand2_1
*CAP
1 *594:A 0.000411938
2 *448:Y 0.000411938
3 *594:A *448:A 1.54008e-05
4 *594:A *448:B 0
5 *594:A *524:CLK 0.000339326
6 *594:A *220:21 0
*RES
1 *448:Y *594:A 43.7801 
*END

*D_NET *61 0.00053908
*CONN
*I *452:A2 I *D sg13g2_o21ai_1
*I *449:Y O *D sg13g2_nor2_1
*CAP
1 *452:A2 4.33368e-05
2 *449:Y 5.39976e-05
3 *61:8 9.73343e-05
4 *452:A2 *452:B1 8.01392e-05
5 *61:8 *220:29 0.00018416
6 *59:21 *452:A2 8.01118e-05
*RES
1 *449:Y *61:8 40.8446 
2 *61:8 *452:A2 40.5356 
*END

*D_NET *62 0.000533987
*CONN
*I *451:B I *D sg13g2_xnor2_1
*I *450:X O *D sg13g2_xor2_1
*CAP
1 *451:B 3.45595e-05
2 *450:X 8.85982e-05
3 *62:8 0.000123158
4 *451:B *447:A 0
5 *62:8 *145:36 0
6 *62:8 *220:8 0
7 *59:21 *62:8 0.000287672
*RES
1 *450:X *62:8 41.339 
2 *62:8 *451:B 40.3193 
*END

*D_NET *63 0.00147621
*CONN
*I *458:A1 I *D sg13g2_o21ai_1
*I *457:A I *D sg13g2_xnor2_1
*I *453:Y O *D sg13g2_nand2_1
*CAP
1 *458:A1 0.00012566
2 *457:A 0.000417352
3 *453:Y 3.70098e-05
4 *63:8 0.000580022
5 *457:A *457:B 1.54556e-05
6 *457:A *458:B1 0
7 *457:A *468:A 0
8 *457:A *530:CLK 0
9 *458:A1 *447:A 0
10 *458:A1 *458:A2 1.54008e-05
11 *63:8 *530:CLK 0
12 *607:A *457:A 0
13 *607:A *63:8 4.75151e-05
14 *53:8 *457:A 7.62389e-05
15 *53:8 *458:A1 0.000161555
*RES
1 *453:Y *63:8 40.5356 
2 *63:8 *457:A 44.5985 
3 *63:8 *458:A1 41.5965 
*END

*D_NET *64 0.002307
*CONN
*I *606:A I *D sg13g2_dlygate4sd3_1
*I *454:Y O *D sg13g2_nand2_1
*CAP
1 *606:A 0
2 *454:Y 0.000609432
3 *64:8 0.000609432
4 *64:8 *456:A 0
5 *64:8 *117:78 0
6 *64:8 *117:96 0
7 *64:8 *205:10 0.00108813
*RES
1 *454:Y *64:8 47.0246 
2 *64:8 *606:A 40 
*END

*D_NET *65 0.00174857
*CONN
*I *458:A2 I *D sg13g2_o21ai_1
*I *455:Y O *D sg13g2_nor2_1
*CAP
1 *458:A2 4.94539e-05
2 *455:Y 0.000809431
3 *65:8 0.000858885
4 *458:A2 *447:A 0
5 *458:A2 *458:B1 1.54008e-05
6 *458:A1 *458:A2 1.54008e-05
*RES
1 *455:Y *65:8 48.2606 
2 *65:8 *458:A2 40.5356 
*END

*D_NET *66 0.000281068
*CONN
*I *457:B I *D sg13g2_xnor2_1
*I *456:X O *D sg13g2_xor2_1
*CAP
1 *457:B 0.000132806
2 *456:X 0.000132806
3 *457:B *456:A 0
4 *457:B *468:A 0
5 *457:A *457:B 1.54556e-05
*RES
1 *456:X *457:B 41.6583 
*END

*D_NET *67 0.00566947
*CONN
*I *463:A I *D sg13g2_xnor2_1
*I *464:A1 I *D sg13g2_o21ai_1
*I *459:Y O *D sg13g2_nand2_1
*CAP
1 *463:A 0
2 *464:A1 7.11052e-05
3 *459:Y 0.000382329
4 *67:22 0.00117185
5 *67:14 0.00115815
6 *67:10 0.000439732
7 *464:A1 *464:A2 1.54008e-05
8 *464:A1 *147:49 0
9 *67:10 *132:16 0
10 *67:10 *142:20 0
11 *67:10 *233:8 0
12 *67:10 *256:14 0.000608769
13 *67:14 *463:B 1.54008e-05
14 *67:22 *461:B 0
15 *67:22 *463:B 0
16 *67:22 *529:RESET_B 0.000339353
17 *67:22 *605:A 0
18 *67:22 *117:112 0
19 *67:22 *117:117 0
20 *67:22 *185:8 0.00135495
21 *601:A *464:A1 0.000112426
*RES
1 *459:Y *67:10 44.7483 
2 *67:10 *67:14 20.5356 
3 *67:14 *67:22 33.8741 
4 *67:22 *464:A1 40.7519 
5 *67:14 *463:A 20 
*END

*D_NET *68 0.00292078
*CONN
*I *600:A I *D sg13g2_dlygate4sd3_1
*I *460:Y O *D sg13g2_nand2_1
*CAP
1 *600:A 0.000508291
2 *460:Y 0.000419248
3 *68:10 0.000927539
4 *600:A *461:B 0
5 *600:A *556:A 0
6 *600:A *599:A 4.77702e-05
7 *600:A *117:142 0
8 *600:A *142:20 0.000857694
9 *68:10 *460:A 0.000144843
10 *68:10 *499:A 0
11 *68:10 *91:10 0
12 *68:10 *132:16 0
13 *68:10 *184:8 0
14 *68:10 *236:10 0
15 *68:10 *256:29 1.54008e-05
16 *15:13 *68:10 0
*RES
1 *460:Y *68:10 44.1303 
2 *68:10 *600:A 45.7268 
*END

*D_NET *69 0.00185185
*CONN
*I *464:A2 I *D sg13g2_o21ai_1
*I *461:Y O *D sg13g2_nor2_1
*CAP
1 *464:A2 0.000143007
2 *461:Y 0.00072991
3 *69:8 0.000872917
4 *464:A2 *464:B1 1.54008e-05
5 *464:A2 *485:A 0
6 *464:A2 *488:A2 0
7 *69:8 *536:CLK 0
8 *69:8 *537:CLK 0
9 *69:8 *84:8 7.52158e-05
10 *69:8 *117:126 0
11 *69:8 *117:138 0
12 *69:8 *121:8 0
13 *69:8 *157:14 0
14 *69:8 *157:34 0
15 *69:8 *185:8 0
16 *464:A1 *464:A2 1.54008e-05
*RES
1 *461:Y *69:8 47.2718 
2 *69:8 *464:A2 41.4008 
*END

*D_NET *70 0.000779604
*CONN
*I *463:B I *D sg13g2_xnor2_1
*I *462:X O *D sg13g2_xor2_1
*CAP
1 *463:B 0.000140428
2 *462:X 0.000136867
3 *70:8 0.000277295
4 *463:B *461:B 0.000209614
5 *70:8 *132:16 0
6 *15:13 *70:8 0
7 *67:14 *463:B 1.54008e-05
8 *67:22 *463:B 0
*RES
1 *462:X *70:8 41.5862 
2 *70:8 *463:B 41.4008 
*END

*D_NET *71 0.00419737
*CONN
*I *469:A I *D sg13g2_xnor2_1
*I *470:A1 I *D sg13g2_o21ai_1
*I *465:Y O *D sg13g2_nand2_1
*CAP
1 *469:A 0
2 *470:A1 0.000425724
3 *465:Y 0.000331993
4 *71:20 0.00118894
5 *71:10 0.00109521
6 *470:A1 *466:A 4.77425e-05
7 *470:A1 *530:D 0.000175859
8 *470:A1 *72:10 4.74808e-05
9 *470:A1 *72:18 0.000207991
10 *470:A1 *168:14 0
11 *470:A1 *253:26 0
12 *71:10 *430:B 0.000661059
13 *71:10 *104:8 0
14 *71:10 *107:12 0
15 *71:20 *430:B 0
16 *71:20 *473:A 0
17 *71:20 *531:D 0
18 *71:20 *72:18 1.53666e-05
19 *71:20 *117:23 0
20 *71:20 *229:10 0
*RES
1 *465:Y *71:10 44.7792 
2 *71:10 *71:20 28.1679 
3 *71:20 *470:A1 24.9028 
4 *71:20 *469:A 20 
*END

*D_NET *72 0.00183296
*CONN
*I *585:A I *D sg13g2_dlygate4sd3_1
*I *466:Y O *D sg13g2_nand2_1
*CAP
1 *585:A 0
2 *466:Y 8.96272e-05
3 *72:18 0.000389973
4 *72:10 0.000479601
5 *72:10 *253:26 4.73929e-05
6 *72:18 *74:12 0.000555528
7 *72:18 *117:13 0
8 *72:18 *168:14 0
9 *72:18 *253:26 0
10 *470:A1 *72:10 4.74808e-05
11 *470:A1 *72:18 0.000207991
12 *71:20 *72:18 1.53666e-05
*RES
1 *466:Y *72:10 40.9167 
2 *72:10 *72:18 44.223 
3 *72:18 *585:A 40 
*END

*D_NET *73 0.00327126
*CONN
*I *470:A2 I *D sg13g2_o21ai_1
*I *467:Y O *D sg13g2_nor2_1
*CAP
1 *470:A2 0.000664224
2 *467:Y 0.000546633
3 *73:12 0.00121086
4 *470:A2 *466:A 0
5 *470:A2 *168:14 2.20619e-05
6 *470:A2 *205:10 0.000129077
7 *470:A2 *212:10 0.000554993
8 *470:A2 *257:8 0
9 *73:12 *456:A 4.77347e-05
10 *73:12 *527:RESET_B 0
11 *73:12 *527:D 0
12 *73:12 *562:A 1.54556e-05
13 *73:12 *625:A 8.02267e-05
14 *73:12 *212:10 0
15 *549:A *73:12 0
16 *51:8 *470:A2 0
*RES
1 *467:Y *73:12 45.3148 
2 *73:12 *470:A2 47.9104 
*END

*D_NET *74 0.00291925
*CONN
*I *469:B I *D sg13g2_xnor2_1
*I *468:X O *D sg13g2_xor2_1
*CAP
1 *469:B 0
2 *468:X 0.000850834
3 *74:12 0.000850834
4 *74:12 *468:B 0
5 *74:12 *530:CLK 0
6 *74:12 *167:8 0
7 *74:12 *168:14 0
8 *74:12 *253:26 0.000662052
9 *72:18 *74:12 0.000555528
*RES
1 *468:X *74:12 49.9807 
2 *74:12 *469:B 40 
*END

*D_NET *75 0.0042096
*CONN
*I *476:A1 I *D sg13g2_o21ai_1
*I *475:A I *D sg13g2_xnor2_1
*I *471:Y O *D sg13g2_nand2_1
*CAP
1 *476:A1 0.000375903
2 *475:A 0
3 *471:Y 0.000139243
4 *75:10 0.00126206
5 *75:8 0.0010254
6 *476:A1 *473:A 0
7 *476:A1 *475:B 4.77425e-05
8 *476:A1 *476:A2 0.000594207
9 *476:A1 *533:D 0
10 *476:A1 *569:A 0.000175467
11 *476:A1 *78:8 7.49214e-05
12 *476:A1 *143:68 0.000272444
13 *75:8 *141:28 0.000242213
14 *75:10 *104:8 0
15 *75:10 *105:8 0
16 *75:10 *107:12 0
17 *75:10 *151:10 0
18 *75:10 *231:10 0
*RES
1 *471:Y *75:8 41.6171 
2 *75:8 *75:10 9.991 
3 *75:10 *475:A 40 
4 *75:10 *476:A1 44.5938 
*END

*D_NET *76 0.00188877
*CONN
*I *588:A I *D sg13g2_dlygate4sd3_1
*I *472:Y O *D sg13g2_nand2_1
*CAP
1 *588:A 8.78739e-05
2 *472:Y 0.00076462
3 *76:14 0.000852494
4 *588:A *147:49 0
5 *76:14 *476:A2 0
6 *76:14 *531:RESET_B 8.03692e-05
7 *76:14 *532:D 3.8639e-05
8 *76:14 *121:8 0
9 *76:14 *121:12 0
10 *76:14 *143:68 6.4771e-05
11 *76:14 *172:8 0
12 *3:14 *588:A 0
*RES
1 *472:Y *76:14 47.6426 
2 *76:14 *588:A 40.7519 
*END

*D_NET *77 0.00189428
*CONN
*I *476:A2 I *D sg13g2_o21ai_1
*I *473:Y O *D sg13g2_nor2_1
*CAP
1 *476:A2 0.000585921
2 *473:Y 0.000585921
3 *476:A2 *473:A 0
4 *476:A2 *473:B 8.03146e-05
5 *476:A2 *476:B1 4.79124e-05
6 *476:A2 *532:D 0
7 *476:A1 *476:A2 0.000594207
8 *76:14 *476:A2 0
*RES
1 *473:Y *476:A2 46.2109 
*END

*D_NET *78 0.000819716
*CONN
*I *475:B I *D sg13g2_xnor2_1
*I *474:X O *D sg13g2_xor2_1
*CAP
1 *475:B 3.03288e-05
2 *474:X 0.000174318
3 *78:8 0.000204647
4 *78:8 *473:A 0
5 *78:8 *143:68 0
6 *78:8 *250:14 0.000287759
7 *476:A1 *475:B 4.77425e-05
8 *476:A1 *78:8 7.49214e-05
*RES
1 *474:X *78:8 42.3278 
2 *78:8 *475:B 40.3193 
*END

*D_NET *79 0.00202723
*CONN
*I *481:A I *D sg13g2_xnor2_1
*I *482:A1 I *D sg13g2_o21ai_1
*I *477:Y O *D sg13g2_nand2_1
*CAP
1 *481:A 0
2 *482:A1 0
3 *477:Y 0
4 *79:29 0.000123556
5 *79:16 0.000615409
6 *79:4 0.000738965
7 *79:16 *477:A 7.98582e-05
8 *79:16 *481:B 0
9 *79:16 *482:A2 0
10 *79:16 *141:114 0
11 *79:16 *174:16 8.00842e-05
12 *79:16 *210:8 0
13 *79:16 *247:18 0
14 *79:29 *477:A 4.77425e-05
15 *79:29 *477:B 0
16 *79:29 *174:16 0.00034162
17 *592:A *79:16 0
*RES
1 *477:Y *79:4 20 
2 *79:4 *79:16 45.5723 
3 *79:16 *482:A1 20 
4 *79:4 *79:29 41.9055 
5 *79:29 *481:A 20 
*END

*D_NET *80 0.000424065
*CONN
*I *591:A I *D sg13g2_dlygate4sd3_1
*I *478:Y O *D sg13g2_nand2_1
*CAP
1 *591:A 0.00018809
2 *478:Y 0.00018809
3 *591:A *535:D 0
4 *591:A *590:A 0
5 *591:A *247:40 4.7885e-05
*RES
1 *478:Y *591:A 41.9673 
*END

*D_NET *81 0.000686552
*CONN
*I *482:A2 I *D sg13g2_o21ai_1
*I *479:Y O *D sg13g2_nor2_1
*CAP
1 *482:A2 0.000223127
2 *479:Y 0.000223127
3 *482:A2 *482:B1 0.000240298
4 *79:16 *482:A2 0
*RES
1 *479:Y *482:A2 42.0497 
*END

*D_NET *82 0.000584121
*CONN
*I *481:B I *D sg13g2_xnor2_1
*I *480:X O *D sg13g2_xor2_1
*CAP
1 *481:B 0.000235961
2 *480:X 0.000235961
3 *481:B *477:A 0.0001122
4 *481:B *535:D 0
5 *79:16 *481:B 0
*RES
1 *480:X *481:B 42.5956 
*END

*D_NET *83 0.00300809
*CONN
*I *487:A I *D sg13g2_xnor2_1
*I *488:A1 I *D sg13g2_o21ai_1
*I *483:Y O *D sg13g2_nand2_1
*CAP
1 *487:A 0.000107855
2 *488:A1 0.000739688
3 *483:Y 0.000180756
4 *83:12 0.0010283
5 *487:A *140:20 0
6 *487:A *142:115 0
7 *488:A1 *488:B1 0.000306896
8 *488:A1 *488:A2 1.54008e-05
9 *488:A1 *563:A 0.00032381
10 *488:A1 *140:20 0
11 *488:A1 *147:49 0.000242071
12 *488:A1 *247:25 0
13 *488:A1 *247:40 0
14 *83:12 *483:B 4.79124e-05
15 *83:12 *576:A 1.54008e-05
*RES
1 *483:Y *83:12 42.0703 
2 *83:12 *488:A1 47.5602 
3 *83:12 *487:A 41.0918 
*END

*D_NET *84 0.00252893
*CONN
*I *576:A I *D sg13g2_dlygate4sd3_1
*I *484:Y O *D sg13g2_nand2_1
*CAP
1 *576:A 0.000185094
2 *484:Y 0.000104979
3 *84:16 0.000816573
4 *84:8 0.000736458
5 *576:A *487:B 0
6 *576:A *537:D 0
7 *576:A *146:10 0
8 *84:8 *121:8 0
9 *84:8 *157:14 0.000288087
10 *84:16 *488:A2 0
11 *84:16 *575:A 0
12 *84:16 *140:20 0
13 *84:16 *146:10 0.000307127
14 *84:16 *157:6 0
15 *84:16 *157:14 0
16 *84:16 *159:8 0
17 *84:16 *244:14 0
18 *84:16 *244:34 0
19 *52:8 *84:8 0
20 *69:8 *84:8 7.52158e-05
21 *83:12 *576:A 1.54008e-05
*RES
1 *484:Y *84:8 41.5862 
2 *84:8 *84:16 46.1715 
3 *84:16 *576:A 41.8334 
*END

*D_NET *85 0.00143497
*CONN
*I *488:A2 I *D sg13g2_o21ai_1
*I *485:Y O *D sg13g2_nor2_1
*CAP
1 *488:A2 0.000378555
2 *485:Y 8.27588e-05
3 *85:10 0.000461313
4 *488:A2 *485:A 0.000176484
5 *488:A2 *488:B1 1.54008e-05
6 *488:A2 *535:CLK 0
7 *488:A2 *575:A 0
8 *488:A2 *244:14 0.000209641
9 *85:10 *485:A 4.75425e-05
10 *85:10 *485:B 4.78769e-05
11 *85:10 *121:8 0
12 *464:A2 *488:A2 0
13 *488:A1 *488:A2 1.54008e-05
14 *84:16 *488:A2 0
*RES
1 *485:Y *85:10 40.9167 
2 *85:10 *488:A2 44.0479 
*END

*D_NET *86 0.000818675
*CONN
*I *487:B I *D sg13g2_xnor2_1
*I *486:X O *D sg13g2_xor2_1
*CAP
1 *487:B 0.000134797
2 *486:X 0.000274541
3 *86:10 0.000409338
4 *487:B *537:D 0
5 *487:B *142:6 0
6 *86:10 *537:D 0
7 *86:10 *157:34 0
8 *86:10 *201:8 0
9 *576:A *487:B 0
*RES
1 *486:X *86:10 42.4926 
2 *86:10 *487:B 41.1845 
*END

*D_NET *87 0.00342933
*CONN
*I *493:A I *D sg13g2_xnor2_1
*I *494:A1 I *D sg13g2_o21ai_1
*I *489:Y O *D sg13g2_nand2_1
*CAP
1 *493:A 0
2 *494:A1 0.000275675
3 *489:Y 0.000171167
4 *87:27 0.000754038
5 *87:8 0.00120088
6 *494:A1 *494:B1 0.000128618
7 *494:A1 *494:A2 0.00030579
8 *87:8 *489:B 0
9 *87:27 *489:B 0
10 *87:27 *491:B 0
11 *87:27 *492:A 0
12 *87:27 *493:B 1.54008e-05
13 *87:27 *494:B1 0.000177212
14 *87:27 *603:A 0
15 *87:27 *146:69 0.000176673
16 *87:27 *187:12 0
17 *87:27 *200:8 0
18 *87:27 *203:6 0
19 *87:27 *240:12 0
20 uo_CORE2PAD[4] *494:A1 4.77699e-05
21 *31:14 *494:A1 0
22 *31:14 *87:8 0.000176105
*RES
1 *489:Y *87:8 21.9673 
2 *87:8 *494:A1 23.1106 
3 *87:8 *87:27 48.1576 
4 *87:27 *493:A 20 
*END

*D_NET *88 0.00209287
*CONN
*I *603:A I *D sg13g2_dlygate4sd3_1
*I *490:Y O *D sg13g2_nand2_1
*CAP
1 *603:A 0.000526068
2 *490:Y 0.000302154
3 *88:8 0.000828222
4 *603:A *538:CLK 0
5 *603:A *125:20 0.000194355
6 *603:A *125:22 0.000242071
7 *603:A *146:69 0
8 *603:A *146:78 0
9 *603:A *203:6 0
10 *88:8 *117:158 0
11 *88:8 *166:8 0
12 *87:27 *603:A 0
*RES
1 *490:Y *88:8 43.5638 
2 *88:8 *603:A 45.5105 
*END

*D_NET *89 0.0030001
*CONN
*I *494:A2 I *D sg13g2_o21ai_1
*I *491:Y O *D sg13g2_nor2_1
*CAP
1 *494:A2 0.000167732
2 *491:Y 0.000476679
3 *89:10 0.000644411
4 *494:A2 *494:B1 0.000305932
5 *89:10 *491:A 0.000144842
6 *89:10 *496:B 0.000241868
7 *89:10 *240:12 0
8 *89:10 *240:19 0
9 uo_CORE2PAD[3] *89:10 0
10 *494:A1 *494:A2 0.00030579
11 *31:14 *89:10 0.000712844
*RES
1 *491:Y *89:10 45.6753 
2 *89:10 *494:A2 42.0497 
*END

*D_NET *90 0.00043254
*CONN
*I *493:B I *D sg13g2_xnor2_1
*I *492:X O *D sg13g2_xor2_1
*CAP
1 *493:B 6.09298e-05
2 *492:X 0.00014764
3 *90:8 0.00020857
4 *90:8 *117:158 0
5 *87:27 *493:B 1.54008e-05
*RES
1 *492:X *90:8 41.339 
2 *90:8 *493:B 40.5356 
*END

*D_NET *91 0.00350599
*CONN
*I *500:A1 I *D sg13g2_o21ai_1
*I *499:A I *D sg13g2_xnor2_1
*I *495:Y O *D sg13g2_nand2_1
*CAP
1 *500:A1 0.000367493
2 *499:A 0.00024127
3 *495:Y 0.000373349
4 *91:10 0.000982112
5 *499:A *499:B 0.000404152
6 *499:A *541:RESET_B 0
7 *499:A *236:10 0
8 *500:A1 *500:A2 1.54008e-05
9 *500:A1 *203:12 0
10 *500:A1 *235:8 0.000501962
11 *91:10 *498:A 0
12 *91:10 *499:B 0
13 *91:10 *132:16 0.000177442
14 *91:10 *236:10 0
15 *91:10 *256:29 4.77425e-05
16 *15:13 *500:A1 0
17 *15:13 *91:10 0
18 *46:8 *500:A1 0.000395067
19 *68:10 *499:A 0
20 *68:10 *91:10 0
*RES
1 *495:Y *91:10 44.0067 
2 *91:10 *499:A 42.6986 
3 *91:10 *500:A1 45.4384 
*END

*D_NET *92 0.00377719
*CONN
*I *582:A I *D sg13g2_dlygate4sd3_1
*I *496:Y O *D sg13g2_nand2_1
*CAP
1 *582:A 0
2 *496:Y 0.00151698
3 *92:10 0.00151698
4 *92:10 *491:A 0
5 *92:10 *500:A2 0
6 *92:10 *138:10 0
7 *92:10 *238:19 0
8 uo_CORE2PAD[13] *92:10 0.00033896
9 *630:A *92:10 0
10 *635:A *92:10 0.000404267
*RES
1 *496:Y *92:10 36.4697 
2 *92:10 *582:A 20 
*END

*D_NET *93 0.00119057
*CONN
*I *500:A2 I *D sg13g2_o21ai_1
*I *497:Y O *D sg13g2_nor2_1
*CAP
1 *500:A2 0.000579884
2 *497:Y 0.000579884
3 *500:A2 *500:B1 1.54008e-05
4 *500:A2 *581:A 0
5 *500:A2 *138:10 0
6 *500:A2 *164:25 0
7 *500:A2 *203:6 0
8 *500:A1 *500:A2 1.54008e-05
9 *635:A *500:A2 0
10 *92:10 *500:A2 0
*RES
1 *497:Y *500:A2 45.5105 
*END

*D_NET *94 0.00106571
*CONN
*I *499:B I *D sg13g2_xnor2_1
*I *498:X O *D sg13g2_xor2_1
*CAP
1 *499:B 0.00033078
2 *498:X 0.00033078
3 *499:B *498:A 0
4 *499:B *541:CLK 0
5 *499:A *499:B 0.000404152
6 *91:10 *499:B 0
*RES
1 *498:X *499:B 43.5638 
*END

*D_NET *95 0.00530007
*CONN
*I *506:A1 I *D sg13g2_o21ai_1
*I *505:A I *D sg13g2_xnor2_1
*I *501:Y O *D sg13g2_nand2_1
*CAP
1 *506:A1 0.000531416
2 *505:A 0.00060605
3 *501:Y 0.000162483
4 *95:8 0.00129995
5 *505:A *495:A 0
6 *505:A *505:B 0
7 *505:A *542:RESET_B 0
8 *505:A *542:CLK 0
9 *505:A *123:31 0
10 *505:A *142:26 0
11 *505:A *145:60 0
12 *506:A1 *506:B1 0
13 *506:A1 *506:A2 8.00842e-05
14 *506:A1 *128:10 0.000486488
15 *506:A1 *142:71 0.00131127
16 *95:8 *128:10 0.000238265
17 *95:8 *142:38 7.61954e-05
18 *95:8 *142:71 0.00050787
*RES
1 *501:Y *95:8 42.575 
2 *95:8 *505:A 46.1079 
3 *95:8 *506:A1 47.0349 
*END

*D_NET *96 0.00534913
*CONN
*I *609:A I *D sg13g2_dlygate4sd3_1
*I *502:Y O *D sg13g2_nand2_1
*CAP
1 *609:A 0
2 *502:Y 0.000880825
3 *96:14 0.00041338
4 *96:6 0.0012942
5 *96:6 *502:A 0.000629342
6 *96:6 *565:A 0
7 *96:6 *216:8 0.000792347
8 *96:6 *235:14 0
9 *96:6 *235:24 0.000499976
10 *96:14 *504:B 0
11 *96:14 *504:A 0
12 *96:14 *608:A 7.94189e-05
13 *96:14 *117:96 0
14 *610:A *96:6 0.000759636
15 *610:A *96:14 0
*RES
1 *502:Y *96:6 30.4854 
2 *96:6 *96:14 43.7595 
3 *96:14 *609:A 20 
*END

*D_NET *97 0.00179261
*CONN
*I *506:A2 I *D sg13g2_o21ai_1
*I *503:Y O *D sg13g2_nor2_1
*CAP
1 *506:A2 4.37077e-05
2 *503:Y 0.000772513
3 *97:8 0.00081622
4 *506:A2 *506:B1 8.00842e-05
5 *506:A1 *506:A2 8.00842e-05
*RES
1 *503:Y *97:8 47.2718 
2 *97:8 *506:A2 40.5356 
*END

*D_NET *98 0.00120146
*CONN
*I *505:B I *D sg13g2_xnor2_1
*I *504:X O *D sg13g2_xor2_1
*CAP
1 *505:B 0.000143975
2 *504:X 0.000338976
3 *98:8 0.000482951
4 *505:B *196:10 0
5 *505:B *235:14 0
6 *98:8 *459:B 0
7 *98:8 *117:96 0
8 *98:8 *196:10 0.000235556
9 *505:A *505:B 0
*RES
1 *504:X *98:8 44.0582 
2 *98:8 *505:B 41.4008 
*END

*D_NET *99 0.00284953
*CONN
*I *508:B I *D sg13g2_nand2b_1
*I *509:B I *D sg13g2_xnor2_1
*I *507:Y O *D sg13g2_nand2_1
*CAP
1 *508:B 0.000572518
2 *509:B 0.000296087
3 *507:Y 0.00012876
4 *99:10 0.000868605
5 *99:8 0.00012876
6 *508:B *508:A_N 0.000241452
7 *508:B *509:A 0.000435753
8 *508:B *564:A 0
9 *508:B *141:16 0
10 *509:B *509:A 0.000177597
11 *509:B *141:16 0
12 *509:B *141:22 0
13 *99:8 *143:10 0
14 *544:D *509:B 0
15 *4:11 *508:B 0
16 *55:12 *508:B 0
*RES
1 *507:Y *99:8 41.339 
2 *99:8 *99:10 20 
3 *99:10 *509:B 22.8325 
4 *99:10 *508:B 25.5105 
*END

*D_NET *100 0.00421867
*CONN
*I *515:A1 I *D sg13g2_o21ai_1
*I *514:A I *D sg13g2_xnor2_1
*I *510:Y O *D sg13g2_nand2_1
*CAP
1 *515:A1 0.000108939
2 *514:A 0.000791444
3 *510:Y 0.000389343
4 *100:12 0.00128973
5 *514:A *513:A 0
6 *514:A *514:B 1.54008e-05
7 *514:A *547:D 0
8 *514:A *215:8 0
9 *515:A1 *510:A 8.00842e-05
10 *100:12 *510:A 0.000338896
11 *100:12 *597:A 0.000241753
12 *13:15 *100:12 0.000241052
13 *39:10 *514:A 0.00056058
14 *39:10 *515:A1 0.000161447
*RES
1 *510:Y *100:12 44.2333 
2 *100:12 *514:A 48.8236 
3 *100:12 *515:A1 41.3802 
*END

*D_NET *101 0.00109034
*CONN
*I *597:A I *D sg13g2_dlygate4sd3_1
*I *511:Y O *D sg13g2_nand2_1
*CAP
1 *597:A 0.000131678
2 *511:Y 0.000171737
3 *101:8 0.000303415
4 *101:8 *139:8 0
5 *13:15 *597:A 0.000241753
6 *100:12 *597:A 0.000241753
*RES
1 *511:Y *101:8 41.8334 
2 *101:8 *597:A 41.6171 
*END

*D_NET *102 0.00183186
*CONN
*I *515:A2 I *D sg13g2_o21ai_1
*I *512:Y O *D sg13g2_nor2_1
*CAP
1 *515:A2 0
2 *512:Y 0.000367481
3 *102:10 0.000367481
4 *102:10 *181:23 0.00024131
5 *102:10 *216:14 0.000241194
6 uo_CORE2PAD[1] *102:10 0
7 *39:10 *102:10 0.000614396
*RES
1 *512:Y *102:10 44.4393 
2 *102:10 *515:A2 40 
*END

*D_NET *103 0.000542637
*CONN
*I *514:B I *D sg13g2_xnor2_1
*I *513:X O *D sg13g2_xor2_1
*CAP
1 *514:B 0.000263618
2 *513:X 0.000263618
3 *514:B *513:A 0
4 *514:B *145:60 0
5 *514:A *514:B 1.54008e-05
*RES
1 *513:X *514:B 42.4823 
*END

*D_NET *104 0.00326321
*CONN
*I *428:A1 I *D sg13g2_o21ai_1
*I *427:A I *D sg13g2_xnor2_1
*I *423:Y O *D sg13g2_nand2_1
*CAP
1 *428:A1 0
2 *427:A 7.07788e-05
3 *423:Y 0.000139189
4 *104:31 0.000613099
5 *104:10 0.000683877
6 *104:8 0.000139189
7 *427:A *517:RESET_B 0.000112683
8 *427:A *144:20 0
9 *104:31 *424:A 0.000181192
10 *104:31 *428:B1 0
11 *104:31 *428:A2 8.02267e-05
12 *104:31 *517:RESET_B 0.000161899
13 *104:31 *105:8 0
14 *104:31 *143:23 0.000404089
15 *104:31 *144:20 0.000468723
16 *571:A *104:31 0.000208265
17 *71:10 *104:8 0
18 *75:10 *104:8 0
*RES
1 *423:Y *104:8 41.5862 
2 *104:8 *104:10 20 
3 *104:10 *427:A 20.7519 
4 *104:10 *104:31 47.1585 
5 *104:31 *428:A1 20 
*END

*D_NET *105 0.000544693
*CONN
*I *570:A I *D sg13g2_dlygate4sd3_1
*I *424:Y O *D sg13g2_nand2_1
*CAP
1 *570:A 0
2 *424:Y 0.000272347
3 *105:8 0.000272347
4 *105:8 *424:A 0
5 *75:10 *105:8 0
6 *104:31 *105:8 0
*RES
1 *424:Y *105:8 43.0694 
2 *105:8 *570:A 40 
*END

*D_NET *106 0.000637981
*CONN
*I *428:A2 I *D sg13g2_o21ai_1
*I *425:Y O *D sg13g2_nor2_1
*CAP
1 *428:A2 4.30691e-05
2 *425:Y 0.000184674
3 *106:8 0.000227743
4 *428:A2 *428:B1 8.00842e-05
5 *106:8 *425:A 2.21839e-05
6 *106:8 *232:22 0
7 *44:8 *106:8 0
8 *104:31 *428:A2 8.02267e-05
*RES
1 *425:Y *106:8 41.5862 
2 *106:8 *428:A2 40.5356 
*END

*D_NET *107 0.00030568
*CONN
*I *427:B I *D sg13g2_xnor2_1
*I *426:X O *D sg13g2_xor2_1
*CAP
1 *427:B 0
2 *426:X 0.00015284
3 *107:12 0.00015284
4 *107:12 *426:B 0
5 *107:12 *431:B 0
6 *107:12 *144:20 0
7 *71:10 *107:12 0
8 *75:10 *107:12 0
*RES
1 *426:X *107:12 41.7613 
2 *107:12 *427:B 40 
*END

*D_NET *108 0.00139655
*CONN
*I *434:A1 I *D sg13g2_o21ai_1
*I *433:A I *D sg13g2_xnor2_1
*I *429:Y O *D sg13g2_nand2_1
*CAP
1 *434:A1 0.000282191
2 *433:A 0
3 *429:Y 0.000261799
4 *108:10 0.00054399
5 *434:A1 *433:B 0.000229751
6 *434:A1 *434:A2 1.54556e-05
7 *434:A1 *465:B 0
8 *434:A1 *141:53 0
9 *108:10 *433:B 1.54556e-05
10 *108:10 *435:B 0
11 *108:10 *141:53 0
12 *108:10 *141:55 4.79124e-05
13 *43:10 *434:A1 0
*RES
1 *429:Y *108:10 22.8119 
2 *108:10 *433:A 20 
3 *108:10 *434:A1 23.4608 
*END

*D_NET *109 0.00121166
*CONN
*I *579:A I *D sg13g2_dlygate4sd3_1
*I *430:Y O *D sg13g2_nand2_1
*CAP
1 *579:A 3.60433e-05
2 *430:Y 0.000361854
3 *109:10 0.000397898
4 *579:A *161:27 5.7368e-05
5 *109:10 *434:A2 0.0001773
6 *109:10 *110:10 0
7 *109:10 *141:53 0
8 *109:10 *144:102 0.000181192
9 *109:10 *162:8 0
*RES
1 *430:Y *109:10 44.0067 
2 *109:10 *579:A 40.3837 
*END

*D_NET *110 0.00353986
*CONN
*I *434:A2 I *D sg13g2_o21ai_1
*I *431:Y O *D sg13g2_nor2_1
*CAP
1 *434:A2 0.000375856
2 *431:Y 0.000488935
3 *110:10 0.00086479
4 *434:A2 *430:A 0
5 *434:A2 *434:B1 0.000241424
6 *434:A2 *518:D 0
7 *434:A2 *141:53 0
8 *434:A2 *144:20 0
9 *434:A2 *144:24 0
10 *110:10 *430:A 0.000395066
11 *110:10 *430:B 0
12 *110:10 *431:A 0.00077207
13 *110:10 *431:B 0.000208968
14 *110:10 *144:102 0
15 *434:A1 *434:A2 1.54556e-05
16 *109:10 *434:A2 0.0001773
17 *109:10 *110:10 0
*RES
1 *431:Y *110:10 46.6332 
2 *110:10 *434:A2 44.017 
*END

*D_NET *111 0.000648097
*CONN
*I *433:B I *D sg13g2_xnor2_1
*I *432:X O *D sg13g2_xor2_1
*CAP
1 *433:B 0.000161274
2 *432:X 0.000161274
3 *433:B *518:D 0
4 *433:B *141:53 8.0342e-05
5 *434:A1 *433:B 0.000229751
6 *108:10 *433:B 1.54556e-05
*RES
1 *432:X *433:B 42.1939 
*END

*D_NET *112 0.0017058
*CONN
*I *439:A I *D sg13g2_xnor2_1
*I *440:A1 I *D sg13g2_o21ai_1
*I *435:Y O *D sg13g2_nand2_1
*CAP
1 *439:A 7.33808e-05
2 *440:A1 0.000482586
3 *435:Y 0.000217522
4 *112:10 0.000773488
5 *439:A *141:59 0
6 *439:A *144:32 0
7 *440:A1 *440:A2 6.41408e-05
8 *440:A1 *520:RESET_B 0
9 *440:A1 *520:CLK 0
10 *440:A1 *156:12 7.9225e-05
11 *112:10 *435:A 1.54556e-05
12 *574:A *440:A1 0
*RES
1 *435:Y *112:10 42.1218 
2 *112:10 *440:A1 44.4199 
3 *112:10 *439:A 40.7519 
*END

*D_NET *113 0.000746337
*CONN
*I *573:A I *D sg13g2_dlygate4sd3_1
*I *436:Y O *D sg13g2_nand2_1
*CAP
1 *573:A 0.00021204
2 *436:Y 0.00021204
3 *573:A *436:A 0.000177299
4 *573:A *141:78 0
5 *573:A *226:27 0.000144958
6 *574:A *573:A 0
*RES
1 *436:Y *573:A 42.4617 
*END

*D_NET *114 0.00156152
*CONN
*I *440:A2 I *D sg13g2_o21ai_1
*I *437:Y O *D sg13g2_nor2_1
*CAP
1 *440:A2 3.72518e-05
2 *437:Y 0.000535582
3 *114:10 0.000572834
4 *114:10 *572:A 0.000175858
5 *114:10 *154:8 0
6 *114:10 *154:30 0
7 *114:10 *226:27 0.000175858
8 *440:A1 *440:A2 6.41408e-05
9 *574:A *440:A2 0
*RES
1 *437:Y *114:10 46.2315 
2 *114:10 *440:A2 40.4274 
*END

*D_NET *115 0.00129389
*CONN
*I *439:B I *D sg13g2_xnor2_1
*I *438:X O *D sg13g2_xor2_1
*CAP
1 *439:B 0
2 *438:X 0.000258607
3 *115:10 0.000258607
4 *115:10 *141:78 0.000776678
*RES
1 *438:X *115:10 43.8831 
2 *115:10 *439:B 40 
*END

*D_NET *116 0.00121884
*CONN
*I *446:A1 I *D sg13g2_o21ai_1
*I *445:A I *D sg13g2_xnor2_1
*I *441:Y O *D sg13g2_nand2_1
*CAP
1 *446:A1 0.000297113
2 *445:A 0
3 *441:Y 0.000134903
4 *116:8 0.000432016
5 *446:A1 *446:B1 0
6 *446:A2 *446:A1 0.000354809
7 *613:A *446:A1 0
*RES
1 *441:Y *116:8 41.5862 
2 *116:8 *445:A 40 
3 *116:8 *446:A1 43.1106 
*END

*D_NET *117 0.0174535
*CONN
*I *557:A I *D sg13g2_buf_16
*I *556:A I *D sg13g2_buf_16
*I *553:A I *D sg13g2_buf_16
*I *555:A I *D sg13g2_buf_16
*I *554:A I *D sg13g2_buf_16
*I *551:A I *D sg13g2_buf_16
*I *550:A I *D sg13g2_buf_16
*I *552:A I *D sg13g2_buf_16
*I *549:X O *D sg13g2_buf_16
*CAP
1 *557:A 0.000110859
2 *556:A 0.00011845
3 *553:A 0
4 *555:A 0.000131598
5 *554:A 6.34193e-05
6 *551:A 0.000109608
7 *550:A 0.000106817
8 *552:A 9.0206e-05
9 *549:X 0.000231104
10 *117:158 0.0011517
11 *117:142 0.000246867
12 *117:138 0.00135053
13 *117:126 0.000297144
14 *117:121 0.000115878
15 *117:117 0.000681839
16 *117:112 0.000768449
17 *117:96 0.00140069
18 *117:78 0.00159066
19 *117:66 0.00061565
20 *117:60 0.00104392
21 *117:53 0.000366188
22 *117:37 0.000569394
23 *117:23 0.00166231
24 *117:13 0.00330342
25 *117:8 0.00132678
26 *551:A *524:CLK 0
27 *552:A *482:B1 0
28 *555:A *506:B1 0
29 *555:A *194:10 0
30 *556:A *461:B 0
31 *557:A *238:19 0
32 *117:13 *466:A 0
33 *117:13 *132:16 0
34 *117:13 *144:102 0
35 *117:13 *145:8 0
36 *117:13 *253:10 0
37 *117:13 *253:26 0
38 *117:23 *426:A 0
39 *117:23 *431:A 0
40 *117:23 *473:A 0
41 *117:23 *533:D 0
42 *117:23 *534:RESET_B 0
43 *117:23 *534:D 0
44 *117:23 *143:56 0
45 *117:23 *144:102 0
46 *117:23 *151:10 0
47 *117:23 *151:25 0
48 *117:23 *229:10 0
49 *117:23 *231:10 0
50 *117:23 *232:8 0
51 *117:23 *253:26 0
52 *117:37 *466:A 0
53 *117:37 *578:A 0
54 *117:37 *253:26 0
55 *117:53 *256:6 0
56 *117:60 *527:CLK 0
57 *117:60 *605:A 0
58 *117:60 *256:6 0
59 *117:66 *455:B 0
60 *117:66 *524:CLK 0
61 *117:66 *605:A 0
62 *117:66 *122:8 0
63 *117:66 *122:12 0
64 *117:66 *219:21 0
65 *117:96 *459:B 0
66 *117:96 *504:A 0
67 *117:96 *506:B1 0
68 *117:96 *190:12 0
69 *117:96 *194:10 0
70 *117:96 *196:10 0
71 *117:117 *529:CLK 0
72 *117:117 *146:22 0
73 *117:126 *185:8 0
74 *117:138 *185:8 0
75 *117:142 *461:B 0
76 *117:142 *184:36 0
77 *117:158 *492:A 0
78 *117:158 *133:8 0
79 *117:158 *184:36 0
80 *117:158 *238:8 0
81 *117:158 *238:19 0
82 *600:A *556:A 0
83 *600:A *117:142 0
84 *630:A *557:A 0
85 *630:A *117:158 0
86 *3:14 *117:13 0
87 *64:8 *117:78 0
88 *64:8 *117:96 0
89 *67:22 *117:112 0
90 *67:22 *117:117 0
91 *69:8 *117:126 0
92 *69:8 *117:138 0
93 *71:20 *117:23 0
94 *72:18 *117:13 0
95 *88:8 *117:158 0
96 *90:8 *117:158 0
97 *96:14 *117:96 0
98 *98:8 *117:96 0
*RES
1 *549:X *117:8 40.5356 
2 *117:8 *117:13 13.2046 
3 *117:13 *117:23 35.3676 
4 *117:23 *552:A 20.9682 
5 *117:13 *117:37 24.6453 
6 *117:37 *550:A 21.1845 
7 *549:X *117:53 20.9682 
8 *117:53 *117:60 22.9149 
9 *117:60 *117:66 25.253 
10 *117:66 *551:A 21.1742 
11 *117:60 *117:78 2.3278 
12 *117:78 *554:A 40.5356 
13 *117:78 *117:96 32.8338 
14 *117:96 *555:A 21.0712 
15 *549:X *117:112 20.9682 
16 *117:112 *117:117 6.592 
17 *117:117 *117:121 20 
18 *117:121 *117:126 1.0918 
19 *117:126 *553:A 40 
20 *117:126 *117:138 1.8334 
21 *117:138 *117:142 21.1845 
22 *117:142 *556:A 21.1845 
23 *117:138 *117:158 30.712 
24 *117:158 *557:A 20.9682 
*END

*D_NET *118 0.002469
*CONN
*I *519:CLK I *D sg13g2_dfrbpq_1
*I *520:CLK I *D sg13g2_dfrbpq_1
*I *517:CLK I *D sg13g2_dfrbpq_1
*I *518:CLK I *D sg13g2_dfrbpq_1
*I *550:X O *D sg13g2_buf_16
*CAP
1 *519:CLK 0
2 *520:CLK 0.000484676
3 *517:CLK 0.000422793
4 *518:CLK 0
5 *550:X 0.000327032
6 *118:29 0.000654716
7 *118:8 0.000579786
8 *517:CLK *432:A 0
9 *517:CLK *620:A 0
10 *517:CLK *161:12 0
11 *517:CLK *161:27 0
12 *520:CLK *144:26 0
13 *520:CLK *144:32 0
14 *118:8 *432:A 0
15 *118:29 *432:A 0
16 *440:A1 *520:CLK 0
17 *574:A *520:CLK 0
*RES
1 *550:X *118:8 21.9673 
2 *118:8 *518:CLK 20 
3 *118:8 *517:CLK 23.9964 
4 *550:X *118:29 22.1836 
5 *118:29 *520:CLK 24.841 
6 *118:29 *519:CLK 20 
*END

*D_NET *119 0.00584104
*CONN
*I *523:CLK I *D sg13g2_dfrbpq_1
*I *530:CLK I *D sg13g2_dfrbpq_1
*I *522:CLK I *D sg13g2_dfrbpq_1
*I *521:CLK I *D sg13g2_dfrbpq_1
*I *551:X O *D sg13g2_buf_16
*CAP
1 *523:CLK 0.000208232
2 *530:CLK 0.000917295
3 *522:CLK 0
4 *521:CLK 0.000309041
5 *551:X 0.000396392
6 *119:25 0.000917295
7 *119:12 0.000474202
8 *119:10 0.000769785
9 *521:CLK *521:RESET_B 0
10 *521:CLK *522:RESET_B 0
11 *521:CLK *523:RESET_B 0
12 *521:CLK *223:36 0.00040071
13 *523:CLK *447:A 0
14 *523:CLK *197:6 8.00842e-05
15 *523:CLK *197:8 0.00027467
16 *530:CLK *447:A 0
17 *530:CLK *468:B 0
18 *530:CLK *468:A 0.00056558
19 *530:CLK *523:RESET_B 0
20 *530:CLK *167:8 4.77702e-05
21 *530:CLK *212:10 0
22 *530:CLK *223:6 0
23 *119:10 *447:A 0
24 *119:10 *525:D 0.000209756
25 *119:10 *611:A 0
26 *119:12 *223:36 0.000270227
27 *457:A *530:CLK 0
28 *607:A *530:CLK 0
29 *63:8 *530:CLK 0
30 *74:12 *530:CLK 0
*RES
1 *551:X *119:10 44.7174 
2 *119:10 *119:12 2.0806 
3 *119:12 *521:CLK 43.6668 
4 *119:12 *119:25 20 
5 *119:25 *522:CLK 20 
6 *119:25 *530:CLK 29.7856 
7 *119:10 *523:CLK 42.266 
*END

*D_NET *120 0.00449422
*CONN
*I *545:CLK I *D sg13g2_dfrbpq_1
*I *534:CLK I *D sg13g2_dfrbpq_1
*I *516:CLK I *D sg13g2_dfrbpq_1
*I *544:CLK I *D sg13g2_dfrbpq_1
*I *552:X O *D sg13g2_buf_16
*CAP
1 *545:CLK 0
2 *534:CLK 0.000654501
3 *516:CLK 0.00062595
4 *544:CLK 0
5 *552:X 0.000167101
6 *120:16 0.000844266
7 *120:12 0.000980935
8 *120:8 0.000275218
9 *516:CLK *425:B 0.000129509
10 *516:CLK *426:B 0
11 *516:CLK *426:A 0
12 *516:CLK *144:20 0
13 *516:CLK *151:25 0
14 *516:CLK *232:14 7.86681e-05
15 *534:CLK *143:41 0
16 *534:CLK *143:54 0
17 *120:8 *509:A 0
18 *120:12 *143:41 0
19 *120:16 *509:A 0
20 *120:16 *545:RESET_B 0
21 *120:16 *144:20 0
22 *571:A *516:CLK 0
23 *3:8 *534:CLK 0
24 *49:8 *534:CLK 0
25 *55:12 *534:CLK 0.000396126
26 *55:12 *120:8 0
27 *55:12 *120:12 0.000341949
*RES
1 *552:X *120:8 21.751 
2 *120:8 *120:12 21.5862 
3 *120:12 *120:16 22.266 
4 *120:16 *544:CLK 20 
5 *120:16 *516:CLK 26.077 
6 *120:12 *534:CLK 48.0134 
7 *120:8 *545:CLK 20 
*END

*D_NET *121 0.00500157
*CONN
*I *535:CLK I *D sg13g2_dfrbpq_1
*I *533:CLK I *D sg13g2_dfrbpq_1
*I *532:CLK I *D sg13g2_dfrbpq_1
*I *531:CLK I *D sg13g2_dfrbpq_1
*I *553:X O *D sg13g2_buf_16
*CAP
1 *535:CLK 0.000522391
2 *533:CLK 0.00012336
3 *532:CLK 0
4 *531:CLK 0.000451723
5 *553:X 0.000360025
6 *121:30 0.000848066
7 *121:12 0.00065981
8 *121:10 0.000410402
9 *121:8 0.000360025
10 *531:CLK *474:B 0
11 *531:CLK *474:A 0
12 *531:CLK *531:RESET_B 0
13 *531:CLK *143:68 0
14 *531:CLK *167:41 0
15 *533:CLK *172:8 0
16 *535:CLK *488:B1 0
17 *535:CLK *147:49 0.000242213
18 *535:CLK *244:14 0
19 *535:CLK *247:10 0.000501482
20 *121:8 *185:8 0.000287758
21 *121:12 *143:68 0
22 *488:A2 *535:CLK 0
23 *3:14 *531:CLK 0
24 *3:14 *535:CLK 0
25 *3:14 *121:12 0
26 *3:14 *121:30 0
27 *50:8 *533:CLK 0
28 *52:8 *121:8 0.000234311
29 *69:8 *121:8 0
30 *76:14 *121:8 0
31 *76:14 *121:12 0
32 *84:8 *121:8 0
33 *85:10 *121:8 0
*RES
1 *553:X *121:8 44.7998 
2 *121:8 *121:10 20 
3 *121:10 *121:12 2.0497 
4 *121:12 *531:CLK 24.5938 
5 *121:12 *532:CLK 20 
6 *121:10 *121:30 22.0497 
7 *121:30 *533:CLK 41.5862 
8 *121:30 *535:CLK 46.4272 
*END

*D_NET *122 0.00273056
*CONN
*I *527:CLK I *D sg13g2_dfrbpq_1
*I *526:CLK I *D sg13g2_dfrbpq_1
*I *524:CLK I *D sg13g2_dfrbpq_1
*I *525:CLK I *D sg13g2_dfrbpq_1
*I *554:X O *D sg13g2_buf_16
*CAP
1 *527:CLK 0.000227443
2 *526:CLK 0
3 *524:CLK 0.000591196
4 *525:CLK 0
5 *554:X 0.000381274
6 *122:12 0.000814345
7 *122:8 0.00037698
8 *524:CLK *452:B1 0
9 *524:CLK *145:30 0
10 *527:CLK *527:RESET_B 0
11 *527:CLK *145:12 0
12 *122:8 *145:12 0
13 *122:12 *145:12 0
14 *122:12 *145:21 0
15 *122:12 *145:30 0
16 *551:A *524:CLK 0
17 *594:A *524:CLK 0.000339326
18 *117:60 *527:CLK 0
19 *117:66 *524:CLK 0
20 *117:66 *122:8 0
21 *117:66 *122:12 0
*RES
1 *554:X *122:8 21.9673 
2 *122:8 *122:12 2.4308 
3 *122:12 *525:CLK 20 
4 *122:12 *524:CLK 26.5096 
5 *122:8 *526:CLK 20 
6 *554:X *527:CLK 42.1836 
*END

*D_NET *123 0.00262848
*CONN
*I *542:CLK I *D sg13g2_dfrbpq_1
*I *543:CLK I *D sg13g2_dfrbpq_1
*I *547:CLK I *D sg13g2_dfrbpq_1
*I *546:CLK I *D sg13g2_dfrbpq_1
*I *555:X O *D sg13g2_buf_16
*CAP
1 *542:CLK 0.000253775
2 *543:CLK 1.38632e-05
3 *547:CLK 0.000303923
4 *546:CLK 2.77263e-05
5 *555:X 0.00056155
6 *123:31 0.00042324
7 *123:8 0.000737597
8 *542:CLK *235:14 0
9 *547:CLK *513:A 0
10 *547:CLK *547:RESET_B 0
11 *547:CLK *181:23 0
12 *123:8 *513:A 0
13 *123:8 *235:14 0
14 *123:31 *235:14 0
15 *505:A *542:CLK 0
16 *505:A *123:31 0
17 *598:A *547:CLK 0.000306809
18 *598:A *123:8 0
*RES
1 *555:X *123:8 23.6977 
2 *123:8 *546:CLK 20.3502 
3 *123:8 *547:CLK 23.605 
4 *555:X *123:31 21.4008 
5 *123:31 *543:CLK 20.3502 
6 *123:31 *542:CLK 21.0154 
*END

*D_NET *124 0.00385496
*CONN
*I *537:CLK I *D sg13g2_dfrbpq_1
*I *536:CLK I *D sg13g2_dfrbpq_1
*I *528:CLK I *D sg13g2_dfrbpq_1
*I *529:CLK I *D sg13g2_dfrbpq_1
*I *556:X O *D sg13g2_buf_16
*CAP
1 *537:CLK 0.000514851
2 *536:CLK 0.000221825
3 *528:CLK 0
4 *529:CLK 0.000223304
5 *556:X 0
6 *124:22 0.00107157
7 *124:6 0.000396292
8 *124:4 0.000507882
9 *529:CLK *146:22 1.54008e-05
10 *536:CLK *157:34 0
11 *537:CLK *461:B 1.54008e-05
12 *537:CLK *536:D 0
13 *537:CLK *142:20 0
14 *537:CLK *157:34 0
15 *537:CLK *184:36 1.54008e-05
16 *124:6 *146:22 0.000307127
17 *124:22 *146:22 0.000565908
18 *69:8 *536:CLK 0
19 *69:8 *537:CLK 0
20 *117:117 *529:CLK 0
*RES
1 *556:X *124:4 20 
2 *124:4 *124:6 2.0497 
3 *124:6 *529:CLK 22.266 
4 *124:6 *528:CLK 20 
5 *124:4 *124:22 23.7801 
6 *124:22 *536:CLK 42.0806 
7 *124:22 *537:CLK 45.0882 
*END

*D_NET *125 0.00280581
*CONN
*I *539:CLK I *D sg13g2_dfrbpq_1
*I *540:CLK I *D sg13g2_dfrbpq_1
*I *541:CLK I *D sg13g2_dfrbpq_1
*I *538:CLK I *D sg13g2_dfrbpq_1
*I *557:X O *D sg13g2_buf_16
*CAP
1 *539:CLK 0
2 *540:CLK 2.77263e-05
3 *541:CLK 0.000454745
4 *538:CLK 0.000394458
5 *557:X 0.000512626
6 *125:22 0.000672064
7 *125:20 0.00030776
8 *538:CLK *494:B1 0
9 *538:CLK *538:RESET_B 0
10 *538:CLK *146:69 0
11 *541:CLK *498:A 0
12 *541:CLK *541:RESET_B 0
13 *541:CLK *146:78 0
14 *541:CLK *203:6 0
15 *125:20 *203:6 0
16 *125:22 *146:78 0
17 *125:22 *203:6 0
18 *499:B *541:CLK 0
19 *603:A *538:CLK 0
20 *603:A *125:20 0.000194355
21 *603:A *125:22 0.000242071
*RES
1 *557:X *538:CLK 43.9449 
2 *557:X *125:20 21.4008 
3 *125:20 *125:22 2.266 
4 *125:22 *541:CLK 24.3466 
5 *125:22 *540:CLK 20.3502 
6 *125:20 *539:CLK 20 
*END

*D_NET *126 0.000464882
*CONN
*I *564:A I *D sg13g2_buf_1
*I *626:X O *D sg13g2_buf_1
*CAP
1 *564:A 0.000232441
2 *626:X 0.000232441
3 *564:A *141:114 0
4 *508:B *564:A 0
5 *4:11 *564:A 0
6 *55:12 *564:A 0
*RES
1 *626:X *564:A 42.3175 
*END

*D_NET *127 0.000192272
*CONN
*I *510:B I *D sg13g2_nand2_1
*I *627:X O *D sg13g2_buf_1
*CAP
1 *510:B 9.61362e-05
2 *627:X 9.61362e-05
3 *510:B *510:A 0
4 *510:B *511:B 0
5 *13:15 *510:B 0
*RES
1 *627:X *510:B 41.133 
*END

*D_NET *128 0.00223074
*CONN
*I *513:B I *D sg13g2_xor2_1
*I *565:X O *D sg13g2_dlygate4sd3_1
*CAP
1 *513:B 0
2 *565:X 0.000269583
3 *128:10 0.000269583
4 *128:10 *216:8 0
5 *128:10 *235:14 0.000242071
6 *506:A1 *128:10 0.000486488
7 *14:15 *128:10 0.000724753
8 *95:8 *128:10 0.000238265
*RES
1 *565:X *128:10 44.9337 
2 *128:10 *513:B 40 
*END

*D_NET *129 0.000874922
*CONN
*I *504:B I *D sg13g2_xor2_1
*I *566:X O *D sg13g2_dlygate4sd3_1
*CAP
1 *504:B 0.000437461
2 *566:X 0.000437461
3 *504:B *500:B1 0
4 *504:B *504:A 0
5 *504:B *138:10 0
6 *504:B *195:12 0
7 *610:A *504:B 0
8 *96:14 *504:B 0
*RES
1 *566:X *504:B 44.6865 
*END

*D_NET *130 0.00131438
*CONN
*I *450:B I *D sg13g2_xor2_1
*I *567:X O *D sg13g2_dlygate4sd3_1
*CAP
1 *450:B 0.000366396
2 *567:X 0.000366396
3 *450:B *448:B 0
4 *450:B *450:A 0
5 *450:B *145:30 0.000242125
6 *450:B *148:10 0.000339461
*RES
1 *567:X *450:B 44.0479 
*END

*D_NET *131 0.00019645
*CONN
*I *501:B I *D sg13g2_nand2_1
*I *628:X O *D sg13g2_buf_1
*CAP
1 *501:B 9.82252e-05
2 *628:X 9.82252e-05
3 *501:B *455:A 0
4 *501:B *142:28 0
*RES
1 *628:X *501:B 41.133 
*END

*D_NET *132 0.00335521
*CONN
*I *495:B I *D sg13g2_nand2_1
*I *629:X O *D sg13g2_buf_1
*CAP
1 *495:B 0
2 *629:X 0.000140721
3 *132:16 0.00102688
4 *132:8 0.0011676
5 *132:16 *459:B 0
6 *132:16 *495:A 0
7 *132:16 *142:20 0
8 *132:16 *253:10 0
9 *132:16 *256:14 0.000608354
10 *132:16 *256:29 0.000234224
11 *549:A *132:8 0
12 *3:18 *132:8 0
13 *67:10 *132:16 0
14 *68:10 *132:16 0
15 *70:8 *132:16 0
16 *91:10 *132:16 0.000177442
17 *117:13 *132:16 0
*RES
1 *629:X *132:8 41.4008 
2 *132:8 *132:16 32.36 
3 *132:16 *495:B 20 
*END

*D_NET *133 0.00282706
*CONN
*I *489:B I *D sg13g2_nand2_1
*I *630:X O *D sg13g2_buf_1
*CAP
1 *489:B 0.000893516
2 *630:X 0.000196887
3 *133:8 0.0010904
4 *489:B *164:38 0
5 *489:B *200:8 0.000533654
6 *489:B *203:6 0
7 uo_CORE2PAD[15] *489:B 0.000112596
8 *31:14 *489:B 0
9 *87:8 *489:B 0
10 *87:27 *489:B 0
11 *117:158 *133:8 0
*RES
1 *630:X *133:8 41.8334 
2 *133:8 *489:B 48.9198 
*END

*D_NET *134 0.000227356
*CONN
*I *483:B I *D sg13g2_nand2_1
*I *631:X O *D sg13g2_buf_1
*CAP
1 *483:B 8.97216e-05
2 *631:X 8.97216e-05
3 *631:A *483:B 0
4 *83:12 *483:B 4.79124e-05
*RES
1 *631:X *483:B 41.133 
*END

*D_NET *135 0.00020715
*CONN
*I *477:B I *D sg13g2_nand2_1
*I *632:X O *D sg13g2_buf_1
*CAP
1 *477:B 0.000103575
2 *632:X 0.000103575
3 *632:A *477:B 0
4 *79:29 *477:B 0
*RES
1 *632:X *477:B 41.133 
*END

*D_NET *136 0.000468818
*CONN
*I *471:B I *D sg13g2_nand2_1
*I *633:X O *D sg13g2_buf_1
*CAP
1 *471:B 0.000194686
2 *633:X 0.000194686
3 *471:B *507:B 0
4 *471:B *141:22 0
5 *471:B *141:28 0
6 *633:A *471:B 7.94462e-05
*RES
1 *633:X *471:B 41.9673 
*END

*D_NET *137 0.00156408
*CONN
*I *465:B I *D sg13g2_nand2_1
*I *634:X O *D sg13g2_buf_1
*CAP
1 *465:B 0.000507965
2 *634:X 0.000507965
3 *465:B *434:B1 0
4 *465:B *465:A 0
5 *465:B *141:53 0.000177704
6 *434:A1 *465:B 0
7 *580:A *465:B 4.77702e-05
8 *634:A *465:B 0.000274785
9 *43:10 *465:B 4.78853e-05
*RES
1 *634:X *465:B 45.5826 
*END

*D_NET *138 0.00298927
*CONN
*I *459:B I *D sg13g2_nand2_1
*I *635:X O *D sg13g2_buf_1
*CAP
1 *459:B 0.000684649
2 *635:X 0.000809984
3 *138:10 0.00149463
4 *459:B *196:10 0
5 *459:B *203:12 0
6 *459:B *233:8 0
7 *138:10 *500:B1 0
8 *138:10 *203:6 0
9 *500:A2 *138:10 0
10 *504:B *138:10 0
11 *635:A *138:10 0
12 *92:10 *138:10 0
13 *98:8 *459:B 0
14 *117:96 *459:B 0
15 *132:16 *459:B 0
*RES
1 *635:X *138:10 47.8074 
2 *138:10 *459:B 47.519 
*END

*D_NET *139 0.00112631
*CONN
*I *644:A I *D sg13g2_buf_1
*I *548:X O *D sg13g2_buf_1
*CAP
1 *644:A 0.000153445
2 *548:X 0.00040971
3 *139:8 0.000563155
4 *644:A *510:A 0
5 uo_CORE2PAD[0] *644:A 0
6 uo_CORE2PAD[5] *139:8 0
7 *101:8 *139:8 0
*RES
1 *548:X *139:8 43.5638 
2 *139:8 *644:A 41.4008 
*END

*D_NET *140 0.00685558
*CONN
*I *558:A I *D sg13g2_buf_1
*I *559:A I *D sg13g2_buf_1
*I *636:X O *D sg13g2_buf_1
*CAP
1 *558:A 0
2 *559:A 0
3 *636:X 0.000226593
4 *140:20 0.00168748
5 *140:12 0.00185209
6 *140:8 0.000391195
7 *140:8 *141:8 0
8 *140:8 *141:114 0.00012816
9 *140:8 *147:25 0
10 *140:12 *141:114 0
11 *140:20 *141:114 0
12 *140:20 *142:115 0
13 *140:20 *147:25 0
14 *140:20 *147:33 0
15 *140:20 *159:8 0.000394238
16 *140:20 *175:8 0.000661379
17 *140:20 *247:18 0.00151445
18 *487:A *140:20 0
19 *488:A1 *140:20 0
20 *3:8 *140:20 0
21 *55:12 *140:12 0
22 *55:12 *140:20 0
23 *84:16 *140:20 0
*RES
1 *636:X *140:8 42.8222 
2 *140:8 *140:12 21.6171 
3 *140:12 *140:20 39.776 
4 *140:20 *559:A 40 
5 *140:12 *558:A 20 
*END

*D_NET *141 0.0145853
*CONN
*I *477:A I *D sg13g2_nand2_1
*I *507:A I *D sg13g2_nand2_1
*I *471:A I *D sg13g2_nand2_1
*I *423:A I *D sg13g2_nand2_1
*I *429:B I *D sg13g2_nand2_1
*I *441:A I *D sg13g2_nand2_1
*I *435:A I *D sg13g2_nand2_1
*I *465:A I *D sg13g2_nand2_1
*I *558:X O *D sg13g2_buf_1
*CAP
1 *477:A 6.62589e-05
2 *507:A 0
3 *471:A 0
4 *423:A 0
5 *429:B 0
6 *441:A 0
7 *435:A 9.63917e-05
8 *465:A 3.03095e-05
9 *558:X 0.00092054
10 *141:114 0.000867916
11 *141:78 0.00105504
12 *141:59 0.00139617
13 *141:55 0.000288322
14 *141:53 0.000970778
15 *141:34 0.00121587
16 *141:28 0.000711812
17 *141:22 0.000950636
18 *141:16 0.00116789
19 *141:8 0.000789575
20 *435:A *435:B 0
21 *465:A *423:B 0
22 *141:8 *147:25 0.000395371
23 *141:16 *568:A 0
24 *141:16 *143:10 0
25 *141:22 *507:B 0
26 *141:22 *143:23 0
27 *141:22 *232:22 0
28 *141:28 *423:B 0
29 *141:28 *516:D 0
30 *141:28 *517:RESET_B 0
31 *141:28 *143:23 0
32 *141:28 *232:22 0
33 *141:34 *423:B 0
34 *141:34 *430:A 0
35 *141:34 *517:RESET_B 0
36 *141:34 *517:D 0
37 *141:53 *430:A 0
38 *141:53 *432:B 0.000501011
39 *141:53 *434:B1 8.0001e-05
40 *141:53 *518:D 0
41 *141:53 *519:D 0.000144842
42 *141:53 *144:20 0
43 *141:53 *144:26 0
44 *141:55 *519:D 0
45 *141:55 *144:26 0
46 *141:55 *144:32 0
47 *141:59 *429:A 0
48 *141:59 *435:B 0
49 *141:59 *144:32 0
50 *141:78 *438:A 0
51 *141:78 *572:A 0
52 *141:78 *154:24 0
53 *141:78 *206:10 0.000236811
54 *141:78 *224:10 0.000991447
55 *141:78 *226:8 0
56 *141:78 *226:27 0
57 *141:114 *174:16 0
58 *141:114 *210:8 0
59 *433:B *141:53 8.0342e-05
60 *434:A1 *141:53 0
61 *434:A2 *141:53 0
62 *439:A *141:59 0
63 *465:B *465:A 0
64 *465:B *141:53 0.000177704
65 *471:B *141:22 0
66 *471:B *141:28 0
67 *481:B *477:A 0.0001122
68 *508:B *141:16 0
69 *509:B *141:16 0
70 *509:B *141:22 0
71 *544:D *141:16 0
72 *544:D *141:22 0
73 *564:A *141:114 0
74 *573:A *141:78 0
75 *574:A *141:78 0
76 *633:A *141:22 0
77 *642:A *141:34 0
78 *643:A *141:16 0
79 *4:11 *141:16 0
80 *55:12 *141:114 0
81 *75:8 *141:28 0.000242213
82 *79:16 *477:A 7.98582e-05
83 *79:16 *141:114 0
84 *79:29 *477:A 4.77425e-05
85 *108:10 *141:53 0
86 *108:10 *141:55 4.79124e-05
87 *109:10 *141:53 0
88 *112:10 *435:A 1.54556e-05
89 *115:10 *141:78 0.000776678
90 *140:8 *141:8 0
91 *140:8 *141:114 0.00012816
92 *140:12 *141:114 0
93 *140:20 *141:114 0
*RES
1 *558:X *141:8 41.8334 
2 *141:8 *141:16 26.2109 
3 *141:16 *141:22 4.944 
4 *141:22 *141:28 5.1912 
5 *141:28 *141:34 2.693 
6 *141:34 *465:A 20.3502 
7 *141:34 *141:53 49.7438 
8 *141:53 *141:55 0.5356 
9 *141:55 *141:59 22.0159 
10 *141:59 *435:A 40.9167 
11 *141:59 *141:78 33.1325 
12 *141:78 *441:A 20 
13 *141:55 *429:B 20 
14 *141:28 *423:A 20 
15 *141:22 *471:A 20 
16 *141:16 *507:A 20 
17 *558:X *141:114 49.0125 
18 *141:114 *477:A 40.7519 
*END

*D_NET *142 0.020477
*CONN
*I *483:A I *D sg13g2_nand2_1
*I *489:A I *D sg13g2_nand2_1
*I *459:A I *D sg13g2_nand2_1
*I *495:A I *D sg13g2_nand2_1
*I *510:A I *D sg13g2_nand2_1
*I *501:A I *D sg13g2_nand2_1
*I *453:A I *D sg13g2_nand2_1
*I *447:A I *D sg13g2_nand2_1
*I *559:X O *D sg13g2_buf_1
*CAP
1 *483:A 0
2 *489:A 0.000508503
3 *459:A 0
4 *495:A 0.000267253
5 *510:A 0.000821607
6 *501:A 0
7 *453:A 0
8 *447:A 0.000805379
9 *559:X 4.98074e-05
10 *142:115 0.000404228
11 *142:82 0.000284208
12 *142:71 0.00156657
13 *142:40 0.000805379
14 *142:38 0.000980976
15 *142:28 0.00102829
16 *142:26 0.00130628
17 *142:20 0.00226231
18 *142:10 0.00251866
19 *142:6 0.00073284
20 *447:A *447:B 0
21 *447:A *611:A 0
22 *447:A *179:10 0
23 *447:A *197:6 0
24 *447:A *197:8 0
25 *447:A *223:23 4.77699e-05
26 *510:A *511:B 0
27 *510:A *515:B1 0
28 *510:A *565:A 0
29 *510:A *596:A 0
30 *510:A *194:10 0
31 *142:6 *537:D 0
32 *142:20 *460:A 0
33 *142:20 *461:B 0
34 *142:20 *462:B 0.000209899
35 *142:20 *490:B 0.000404179
36 *142:20 *538:RESET_B 0
37 *142:20 *538:D 0.000242355
38 *142:20 *184:8 0
39 *142:20 *184:36 0
40 *142:20 *187:12 0
41 *142:20 *240:12 0
42 *142:20 *256:6 0
43 *142:20 *256:29 0
44 *142:26 *455:A 0
45 *142:26 *542:RESET_B 0
46 *142:26 *543:D 0
47 *142:26 *145:60 0.000209756
48 *142:26 *190:10 0.000111685
49 *142:28 *145:60 8.00842e-05
50 *142:38 *453:B 0.000669607
51 *142:71 *565:A 0.000112648
52 *142:71 *194:10 0
53 uo_CORE2PAD[0] *510:A 0
54 uo_CORE2PAD[3] *489:A 0
55 uo_CORE2PAD[4] *489:A 0.000128248
56 *451:B *447:A 0
57 *458:A1 *447:A 0
58 *458:A2 *447:A 0
59 *487:A *142:115 0
60 *487:B *142:6 0
61 *501:B *142:28 0
62 *505:A *495:A 0
63 *505:A *142:26 0
64 *506:A1 *142:71 0.00131127
65 *510:B *510:A 0
66 *515:A1 *510:A 8.00842e-05
67 *523:CLK *447:A 0
68 *530:CLK *447:A 0
69 *537:CLK *142:20 0
70 *600:A *142:20 0.000857694
71 *610:A *142:71 0
72 *644:A *510:A 0
73 *13:15 *510:A 0
74 *14:15 *142:38 0.00034727
75 *53:8 *142:38 0.000399155
76 *67:10 *142:20 0
77 *95:8 *142:38 7.61954e-05
78 *95:8 *142:71 0.00050787
79 *100:12 *510:A 0.000338896
80 *119:10 *447:A 0
81 *132:16 *495:A 0
82 *132:16 *142:20 0
83 *140:20 *142:115 0
*RES
1 *559:X *142:6 20.5356 
2 *142:6 *142:10 23.5638 
3 *142:10 *142:20 39.1374 
4 *142:20 *142:26 5.7474 
5 *142:26 *142:28 0.5356 
6 *142:28 *142:38 32.9574 
7 *142:38 *142:40 20 
8 *142:40 *447:A 28.6588 
9 *142:40 *453:A 20 
10 *142:28 *501:A 20 
11 *142:26 *142:71 49.8777 
12 *142:71 *510:A 27.6535 
13 *142:20 *142:82 0.3502 
14 *142:82 *495:A 23.09 
15 *142:82 *459:A 20 
16 *142:10 *489:A 46.283 
17 *142:6 *142:115 44.6556 
18 *142:115 *483:A 20 
*END

*D_NET *143 0.00980829
*CONN
*I *534:RESET_B I *D sg13g2_dfrbpq_1
*I *533:RESET_B I *D sg13g2_dfrbpq_1
*I *532:RESET_B I *D sg13g2_dfrbpq_1
*I *531:RESET_B I *D sg13g2_dfrbpq_1
*I *545:RESET_B I *D sg13g2_dfrbpq_1
*I *516:RESET_B I *D sg13g2_dfrbpq_1
*I *517:RESET_B I *D sg13g2_dfrbpq_1
*I *544:RESET_B I *D sg13g2_dfrbpq_1
*I *560:X O *D sg13g2_buf_1
*CAP
1 *534:RESET_B 8.94131e-05
2 *533:RESET_B 2.79154e-05
3 *532:RESET_B 0
4 *531:RESET_B 0.000439598
5 *545:RESET_B 9.79784e-05
6 *516:RESET_B 0
7 *517:RESET_B 0.000498499
8 *544:RESET_B 0
9 *560:X 0.000430781
10 *143:68 0.00101398
11 *143:56 0.000739563
12 *143:54 0.000691
13 *143:41 0.000821892
14 *143:23 0.00108561
15 *143:14 0.000717589
16 *143:10 0.000820853
17 *517:RESET_B *517:D 0
18 *517:RESET_B *144:20 0
19 *517:RESET_B *144:24 0
20 *531:RESET_B *472:A 0
21 *531:RESET_B *473:B 0
22 *531:RESET_B *474:B 0
23 *531:RESET_B *474:A 0
24 *531:RESET_B *167:41 0
25 *143:10 *568:A 0
26 *143:10 *144:14 0.00055613
27 *143:14 *509:A 0.000209198
28 *143:14 *144:20 0
29 *143:23 *424:A 0
30 *143:23 *509:A 0.000209899
31 *143:23 *516:D 0
32 *143:23 *144:20 0
33 *143:41 *144:14 0.000182121
34 *143:68 *172:8 0
35 *427:A *517:RESET_B 0.000112683
36 *476:A1 *143:68 0.000272444
37 *531:CLK *531:RESET_B 0
38 *531:CLK *143:68 0
39 *534:CLK *143:41 0
40 *534:CLK *143:54 0
41 *636:A *143:10 8.0017e-05
42 *76:14 *531:RESET_B 8.03692e-05
43 *76:14 *143:68 6.4771e-05
44 *78:8 *143:68 0
45 *99:8 *143:10 0
46 *104:31 *517:RESET_B 0.000161899
47 *104:31 *143:23 0.000404089
48 *117:23 *534:RESET_B 0
49 *117:23 *143:56 0
50 *120:12 *143:41 0
51 *120:16 *545:RESET_B 0
52 *121:12 *143:68 0
53 *141:16 *143:10 0
54 *141:22 *143:23 0
55 *141:28 *517:RESET_B 0
56 *141:28 *143:23 0
57 *141:34 *517:RESET_B 0
*RES
1 *560:X *143:10 44.841 
2 *143:10 *143:14 21.4008 
3 *143:14 *544:RESET_B 20 
4 *143:14 *143:23 6.077 
5 *143:23 *517:RESET_B 25.1912 
6 *143:23 *516:RESET_B 20 
7 *143:10 *143:41 3.0694 
8 *143:41 *545:RESET_B 40.9682 
9 *143:41 *143:54 25.047 
10 *143:54 *143:56 1.4008 
11 *143:56 *143:68 46.5302 
12 *143:68 *531:RESET_B 24.5938 
13 *143:68 *532:RESET_B 20 
14 *143:56 *533:RESET_B 20.3502 
15 *143:54 *534:RESET_B 20.9682 
*END

*D_NET *144 0.0147278
*CONN
*I *560:A I *D sg13g2_buf_1
*I *530:RESET_B I *D sg13g2_dfrbpq_1
*I *518:RESET_B I *D sg13g2_dfrbpq_1
*I *519:RESET_B I *D sg13g2_dfrbpq_1
*I *523:RESET_B I *D sg13g2_dfrbpq_1
*I *522:RESET_B I *D sg13g2_dfrbpq_1
*I *521:RESET_B I *D sg13g2_dfrbpq_1
*I *520:RESET_B I *D sg13g2_dfrbpq_1
*I *561:X O *D sg13g2_buf_1
*CAP
1 *560:A 0
2 *530:RESET_B 0
3 *518:RESET_B 0
4 *519:RESET_B 4.72978e-05
5 *523:RESET_B 0.000528332
6 *522:RESET_B 0.000137465
7 *521:RESET_B 7.75576e-05
8 *520:RESET_B 3.20038e-05
9 *561:X 0.000138728
10 *144:102 0.000751152
11 *144:60 0.000817544
12 *144:47 0.000808217
13 *144:32 0.00104672
14 *144:26 0.000878972
15 *144:24 0.000626584
16 *144:20 0.00232698
17 *144:14 0.0019097
18 *144:6 0.00070331
19 *520:RESET_B *520:D 0
20 *521:RESET_B *226:8 0
21 *522:RESET_B *522:D 0
22 *522:RESET_B *226:8 0
23 *523:RESET_B *223:8 0
24 *144:6 *561:A 0
25 *144:20 *426:B 0
26 *144:20 *161:27 0
27 *144:24 *432:B 0
28 *144:24 *432:A 0.000177414
29 *144:24 *161:27 0
30 *144:26 *432:B 0
31 *144:26 *432:A 0.000339726
32 *144:26 *519:D 0
33 *144:32 *156:12 0
34 *144:47 *154:30 0
35 *144:47 *156:12 0.000184311
36 *144:47 *206:10 0
37 *144:47 *224:10 0.00104893
38 *144:60 *223:36 0
39 *144:102 *466:A 0.000340411
40 *144:102 *161:12 0
41 *144:102 *207:8 0
42 *144:102 *229:10 0
43 uo_CORE2PAD[10] *144:6 8.02269e-05
44 *427:A *144:20 0
45 *434:A2 *144:20 0
46 *434:A2 *144:24 0
47 *439:A *144:32 0
48 *440:A1 *520:RESET_B 0
49 *446:A2 *523:RESET_B 0
50 *516:CLK *144:20 0
51 *517:RESET_B *144:20 0
52 *517:RESET_B *144:24 0
53 *520:CLK *144:26 0
54 *520:CLK *144:32 0
55 *521:CLK *521:RESET_B 0
56 *521:CLK *522:RESET_B 0
57 *521:CLK *523:RESET_B 0
58 *530:CLK *523:RESET_B 0
59 *571:A *144:20 0.000338005
60 *613:A *523:RESET_B 0
61 *636:A *144:6 0
62 *636:A *144:14 0
63 *4:11 *144:14 0
64 *55:12 *144:14 0
65 *104:31 *144:20 0.000468723
66 *107:12 *144:20 0
67 *109:10 *144:102 0.000181192
68 *110:10 *144:102 0
69 *117:13 *144:102 0
70 *117:23 *144:102 0
71 *120:16 *144:20 0
72 *141:53 *144:20 0
73 *141:53 *144:26 0
74 *141:55 *144:26 0
75 *141:55 *144:32 0
76 *141:59 *144:32 0
77 *143:10 *144:14 0.00055613
78 *143:14 *144:20 0
79 *143:23 *144:20 0
80 *143:41 *144:14 0.000182121
*RES
1 *561:X *144:6 21.4008 
2 *144:6 *144:14 46.5096 
3 *144:14 *144:20 13.0678 
4 *144:20 *144:24 2.3999 
5 *144:24 *144:26 3.9964 
6 *144:26 *144:32 4.2333 
7 *144:32 *520:RESET_B 20.2313 
8 *144:32 *144:47 28.0958 
9 *144:47 *521:RESET_B 40.8549 
10 *144:47 *144:60 1.8334 
11 *144:60 *522:RESET_B 41.1845 
12 *144:60 *523:RESET_B 45.4281 
13 *144:26 *519:RESET_B 20.5974 
14 *144:24 *518:RESET_B 20 
15 *144:20 *144:102 48.9301 
16 *144:102 *530:RESET_B 20 
17 *144:6 *560:A 20 
*END

*D_NET *145 0.00809218
*CONN
*I *527:RESET_B I *D sg13g2_dfrbpq_1
*I *524:RESET_B I *D sg13g2_dfrbpq_1
*I *542:RESET_B I *D sg13g2_dfrbpq_1
*I *543:RESET_B I *D sg13g2_dfrbpq_1
*I *546:RESET_B I *D sg13g2_dfrbpq_1
*I *547:RESET_B I *D sg13g2_dfrbpq_1
*I *525:RESET_B I *D sg13g2_dfrbpq_1
*I *526:RESET_B I *D sg13g2_dfrbpq_1
*I *562:X O *D sg13g2_buf_1
*CAP
1 *527:RESET_B 9.45341e-05
2 *524:RESET_B 0
3 *542:RESET_B 0.000269842
4 *543:RESET_B 0
5 *546:RESET_B 0
6 *547:RESET_B 0.000208606
7 *525:RESET_B 0
8 *526:RESET_B 4.32204e-05
9 *562:X 0.00019561
10 *145:60 0.000859237
11 *145:49 0.000773675
12 *145:36 0.00110736
13 *145:30 0.00136988
14 *145:21 0.000829001
15 *145:12 0.000578006
16 *145:10 0.000455721
17 *145:8 0.00019561
18 *527:RESET_B *527:D 0
19 *547:RESET_B *449:A 0
20 *547:RESET_B *547:D 1.54008e-05
21 *547:RESET_B *548:A 0
22 *145:8 *456:A 0
23 *145:12 *458:B1 0
24 *145:12 *527:D 0
25 *145:21 *458:B1 0
26 *145:21 *148:10 1.54008e-05
27 *145:30 *448:B 0
28 *145:30 *148:10 0
29 *145:30 *220:21 0
30 *145:36 *449:A 0
31 *145:36 *177:8 0
32 *145:49 *449:A 0
33 *145:49 *547:D 0.000339583
34 *145:60 *503:A 0
35 *145:60 *546:D 0
36 *145:60 *547:D 0.000209526
37 *450:B *145:30 0.000242125
38 *505:A *542:RESET_B 0
39 *505:A *145:60 0
40 *514:B *145:60 0
41 *524:CLK *145:30 0
42 *527:CLK *527:RESET_B 0
43 *527:CLK *145:12 0
44 *547:CLK *547:RESET_B 0
45 *59:21 *145:36 0
46 *62:8 *145:36 0
47 *73:12 *527:RESET_B 0
48 *117:13 *145:8 0
49 *122:8 *145:12 0
50 *122:12 *145:12 0
51 *122:12 *145:21 0
52 *122:12 *145:30 0
53 *142:26 *542:RESET_B 0
54 *142:26 *145:60 0.000209756
55 *142:28 *145:60 8.00842e-05
*RES
1 *562:X *145:8 42.0806 
2 *145:8 *145:10 20 
3 *145:10 *145:12 3.5638 
4 *145:12 *526:RESET_B 20.5974 
5 *145:12 *145:21 1.8334 
6 *145:21 *525:RESET_B 20 
7 *145:21 *145:30 6.5096 
8 *145:30 *145:36 48.2606 
9 *145:36 *547:RESET_B 22.6574 
10 *145:36 *145:49 2.266 
11 *145:49 *546:RESET_B 20 
12 *145:49 *145:60 6.18 
13 *145:60 *543:RESET_B 20 
14 *145:60 *542:RESET_B 21.6322 
15 *145:30 *524:RESET_B 20 
16 *145:10 *527:RESET_B 21.133 
*END

*D_NET *146 0.0107497
*CONN
*I *540:RESET_B I *D sg13g2_dfrbpq_1
*I *541:RESET_B I *D sg13g2_dfrbpq_1
*I *539:RESET_B I *D sg13g2_dfrbpq_1
*I *538:RESET_B I *D sg13g2_dfrbpq_1
*I *537:RESET_B I *D sg13g2_dfrbpq_1
*I *536:RESET_B I *D sg13g2_dfrbpq_1
*I *529:RESET_B I *D sg13g2_dfrbpq_1
*I *528:RESET_B I *D sg13g2_dfrbpq_1
*I *563:X O *D sg13g2_buf_1
*CAP
1 *540:RESET_B 0
2 *541:RESET_B 0.00037722
3 *539:RESET_B 2.77263e-05
4 *538:RESET_B 0.000144584
5 *537:RESET_B 0
6 *536:RESET_B 0
7 *529:RESET_B 0.000424464
8 *528:RESET_B 0.000232399
9 *563:X 0.000687373
10 *146:78 0.000593673
11 *146:69 0.000731673
12 *146:54 0.00103141
13 *146:22 0.00122046
14 *146:18 0.000826284
15 *146:14 0.000295406
16 *146:10 0.00111942
17 *529:RESET_B *461:B 0
18 *538:RESET_B *538:D 0
19 *538:RESET_B *240:12 0.000177157
20 *541:RESET_B *540:D 0
21 *541:RESET_B *184:8 0
22 *541:RESET_B *184:36 0
23 *541:RESET_B *236:10 0.000306897
24 *146:10 *563:A 0
25 *146:10 *147:49 0
26 *146:10 *160:8 0
27 *146:10 *201:8 0
28 *146:10 *244:34 0
29 *146:14 *157:34 0
30 *146:18 *536:D 0
31 *146:18 *157:34 0
32 *146:22 *461:B 0
33 *146:54 *160:8 0
34 *146:54 *187:12 0.000181192
35 *146:69 *539:D 0
36 *146:69 *602:A 0
37 *146:69 *187:12 0.00026599
38 *146:69 *240:12 0
39 *146:78 *184:36 0
40 *146:78 *240:12 0
41 *499:A *541:RESET_B 0
42 *529:CLK *146:22 1.54008e-05
43 *538:CLK *538:RESET_B 0
44 *538:CLK *146:69 0
45 *541:CLK *541:RESET_B 0
46 *541:CLK *146:78 0
47 *576:A *146:10 0
48 *603:A *146:69 0
49 *603:A *146:78 0
50 *15:13 *528:RESET_B 0
51 *15:13 *529:RESET_B 0
52 *48:8 *146:10 0.000394739
53 *67:22 *529:RESET_B 0.000339353
54 *84:16 *146:10 0.000307127
55 *87:27 *146:69 0.000176673
56 *117:117 *146:22 0
57 *124:6 *146:22 0.000307127
58 *124:22 *146:22 0.000565908
59 *125:22 *146:78 0
60 *142:20 *538:RESET_B 0
*RES
1 *563:X *146:10 48.1782 
2 *146:10 *146:14 20.3193 
3 *146:14 *146:18 2.6162 
4 *146:18 *146:22 25.7268 
5 *146:22 *528:RESET_B 42.575 
6 *146:22 *529:RESET_B 44.3466 
7 *146:18 *536:RESET_B 20 
8 *146:14 *537:RESET_B 20 
9 *146:10 *146:54 5.047 
10 *146:54 *538:RESET_B 41.5291 
11 *146:54 *146:69 24.3549 
12 *146:69 *539:RESET_B 20.3502 
13 *146:69 *146:78 2.266 
14 *146:78 *541:RESET_B 22.9844 
15 *146:78 *540:RESET_B 20 
*END

*D_NET *147 0.0109732
*CONN
*I *535:RESET_B I *D sg13g2_dfrbpq_1
*I *563:A I *D sg13g2_buf_1
*I *562:A I *D sg13g2_buf_1
*I *561:A I *D sg13g2_buf_1
*I *564:X O *D sg13g2_buf_1
*CAP
1 *535:RESET_B 0
2 *563:A 0.000232852
3 *562:A 0.000870214
4 *561:A 0.000126851
5 *564:X 2.65058e-05
6 *147:49 0.00160543
7 *147:33 0.0013014
8 *147:25 0.00174547
9 *147:8 0.00156549
10 *562:A *467:A 8.00842e-05
11 *562:A *584:A 0
12 *562:A *587:A 0
13 *562:A *625:A 8.02267e-05
14 *562:A *212:10 0
15 *562:A *250:10 0.000242186
16 *562:A *253:18 0.000209384
17 *147:25 *535:D 0
18 *147:25 *590:A 0
19 *147:25 *175:8 0.000665522
20 *147:33 *535:D 0
21 *147:49 *464:B1 0
22 *147:49 *485:B 0.000274785
23 *147:49 *575:A 0.000112426
24 *147:49 *244:14 0.000407949
25 uo_CORE2PAD[10] *561:A 0
26 *464:A1 *147:49 0
27 *488:A1 *563:A 0.00032381
28 *488:A1 *147:49 0.000242071
29 *535:CLK *147:49 0.000242213
30 *588:A *147:49 0
31 *592:A *147:33 0
32 *601:A *562:A 0
33 *601:A *147:49 0
34 *636:A *561:A 0.000112458
35 *636:A *147:8 4.75442e-05
36 *3:8 *561:A 0
37 *3:8 *147:25 0
38 *3:8 *147:33 0
39 *3:14 *562:A 0
40 *3:14 *147:49 0
41 *4:11 *147:8 4.75442e-05
42 *15:13 *562:A 0
43 *73:12 *562:A 1.54556e-05
44 *140:8 *147:25 0
45 *140:20 *147:25 0
46 *140:20 *147:33 0
47 *141:8 *147:25 0.000395371
48 *144:6 *561:A 0
49 *146:10 *563:A 0
50 *146:10 *147:49 0
*RES
1 *564:X *147:8 40.3193 
2 *147:8 *561:A 41.3493 
3 *147:8 *147:25 35.347 
4 *147:25 *147:33 43.3887 
5 *147:33 *147:49 48.5593 
6 *147:49 *562:A 29.0331 
7 *147:33 *563:A 22.6162 
8 *147:25 *535:RESET_B 20 
*END

*D_NET *148 0.00409145
*CONN
*I *453:B I *D sg13g2_nand2_1
*I *637:X O *D sg13g2_buf_1
*CAP
1 *453:B 0.00024757
2 *637:X 0.0010029
3 *148:10 0.00125047
4 *148:10 *447:B 0
5 *148:10 *525:D 0.00056605
6 *450:B *148:10 0.000339461
7 *142:38 *453:B 0.000669607
8 *145:21 *148:10 1.54008e-05
9 *145:30 *148:10 0
*RES
1 *637:X *148:10 49.7541 
2 *148:10 *453:B 43.0694 
*END

*D_NET *149 0.000872394
*CONN
*I *447:B I *D sg13g2_nand2_1
*I *638:X O *D sg13g2_buf_1
*CAP
1 *447:B 0.000151305
2 *638:X 0.000284892
3 *149:8 0.000436197
4 *447:B *525:D 0
5 *447:B *197:8 0
6 *447:A *447:B 0
7 *59:8 *149:8 0
8 *59:21 *149:8 0
9 *148:10 *447:B 0
*RES
1 *638:X *149:8 43.5638 
2 *149:8 *447:B 41.6171 
*END

*D_NET *150 0.00295342
*CONN
*I *508:A_N I *D sg13g2_nand2b_1
*I *509:A I *D sg13g2_xnor2_1
*I *568:X O *D sg13g2_dlygate4sd3_1
*CAP
1 *508:A_N 0.000131444
2 *509:A 0.000498871
3 *568:X 0.000630315
4 *508:B *508:A_N 0.000241452
5 *508:B *509:A 0.000435753
6 *509:B *509:A 0.000177597
7 *55:12 *508:A_N 0.000241452
8 *55:12 *509:A 0.000177442
9 *120:8 *509:A 0
10 *120:16 *509:A 0
11 *143:14 *509:A 0.000209198
12 *143:23 *509:A 0.000209899
*RES
1 *568:X *509:A 45.7474 
2 *568:X *508:A_N 41.6171 
*END

*D_NET *151 0.0043928
*CONN
*I *425:A I *D sg13g2_nor2_1
*I *424:A I *D sg13g2_nand2_1
*I *426:A I *D sg13g2_xor2_1
*I *569:X O *D sg13g2_dlygate4sd3_1
*CAP
1 *425:A 0.000168916
2 *424:A 0.000412405
3 *426:A 0.000335715
4 *569:X 0.000337948
5 *151:25 0.00081085
6 *151:12 0.000565243
7 *151:10 0.000337948
8 *424:A *152:8 0
9 *424:A *232:14 7.51285e-05
10 *424:A *232:22 0.000875249
11 *425:A *425:B 0
12 *425:A *232:8 0
13 *425:A *232:14 0
14 *426:A *426:B 0
15 *426:A *431:B 1.54556e-05
16 *426:A *620:A 0
17 *151:10 *533:D 7.91226e-05
18 *151:10 *621:A 0
19 *151:10 *208:8 0
20 *151:10 *231:10 0.000128562
21 *151:10 *232:14 0
22 *151:25 *232:14 4.68833e-05
23 *516:CLK *426:A 0
24 *516:CLK *151:25 0
25 *75:10 *151:10 0
26 *104:31 *424:A 0.000181192
27 *105:8 *424:A 0
28 *106:8 *425:A 2.21839e-05
29 *117:23 *426:A 0
30 *117:23 *151:10 0
31 *117:23 *151:25 0
32 *143:23 *424:A 0
*RES
1 *569:X *151:10 43.605 
2 *151:10 *151:12 20 
3 *151:12 *426:A 21.7214 
4 *151:12 *151:25 22.0497 
5 *151:25 *424:A 45.4899 
6 *151:25 *425:A 41.8849 
*END

*D_NET *152 0.000900682
*CONN
*I *428:B1 I *D sg13g2_o21ai_1
*I *570:X O *D sg13g2_dlygate4sd3_1
*CAP
1 *428:B1 0.000190487
2 *570:X 0.000155654
3 *152:8 0.000346141
4 *152:8 *208:8 0
5 *152:8 *232:14 0.000128316
6 *424:A *152:8 0
7 *428:A2 *428:B1 8.00842e-05
8 *571:A *428:B1 0
9 *104:31 *428:B1 0
*RES
1 *570:X *152:8 41.5862 
2 *152:8 *428:B1 41.6171 
*END

*D_NET *153 0.000224422
*CONN
*I *516:D I *D sg13g2_dfrbpq_1
*I *571:X O *D sg13g2_dlygate4sd3_1
*CAP
1 *516:D 0.000112211
2 *571:X 0.000112211
3 *141:28 *516:D 0
4 *143:23 *516:D 0
*RES
1 *571:X *516:D 41.1845 
*END

*D_NET *154 0.00197283
*CONN
*I *438:A I *D sg13g2_xor2_1
*I *437:A I *D sg13g2_nor2_1
*I *436:A I *D sg13g2_nand2_1
*I *572:X O *D sg13g2_dlygate4sd3_1
*CAP
1 *438:A 0.000233948
2 *437:A 0
3 *436:A 0.000125193
4 *572:X 0.000292808
5 *154:30 0.00011929
6 *154:24 0.000525258
7 *154:8 0.000245981
8 *436:A *226:27 0
9 *154:8 *226:27 0.000237592
10 *573:A *436:A 0.000177299
11 *574:A *436:A 1.54556e-05
12 *574:A *438:A 0
13 *574:A *154:24 0
14 *114:10 *154:8 0
15 *114:10 *154:30 0
16 *141:78 *438:A 0
17 *141:78 *154:24 0
18 *144:47 *154:30 0
*RES
1 *572:X *154:8 41.5862 
2 *154:8 *436:A 41.4008 
3 *572:X *154:24 21.6171 
4 *154:24 *154:30 41.339 
5 *154:30 *437:A 20 
6 *154:24 *438:A 22.1836 
*END

*D_NET *155 0.000163703
*CONN
*I *440:B1 I *D sg13g2_o21ai_1
*I *573:X O *D sg13g2_dlygate4sd3_1
*CAP
1 *440:B1 8.18517e-05
2 *573:X 8.18517e-05
3 *574:A *440:B1 0
*RES
1 *573:X *440:B1 40.8446 
*END

*D_NET *156 0.000957321
*CONN
*I *520:D I *D sg13g2_dfrbpq_1
*I *574:X O *D sg13g2_dlygate4sd3_1
*CAP
1 *520:D 3.26869e-05
2 *574:X 0.000314206
3 *156:12 0.000346893
4 *440:A1 *156:12 7.9225e-05
5 *520:RESET_B *520:D 0
6 *144:32 *156:12 0
7 *144:47 *156:12 0.000184311
*RES
1 *574:X *156:12 43.1518 
2 *156:12 *520:D 40.3193 
*END

*D_NET *157 0.00319859
*CONN
*I *486:A I *D sg13g2_xor2_1
*I *484:A I *D sg13g2_nand2_1
*I *485:A I *D sg13g2_nor2_1
*I *575:X O *D sg13g2_dlygate4sd3_1
*CAP
1 *486:A 0
2 *484:A 0
3 *485:A 0.000190899
4 *575:X 5.30529e-05
5 *157:34 0.000753655
6 *157:14 0.000496916
7 *157:6 0.00111273
8 *485:A *464:B1 0
9 *485:A *485:B 0
10 *485:A *244:14 0
11 *157:14 *244:14 0
12 *157:34 *536:D 7.92265e-05
13 *157:34 *537:D 0
14 *157:34 *160:8 0
15 *157:34 *244:14 0
16 *464:A2 *485:A 0
17 *488:A2 *485:A 0.000176484
18 *536:CLK *157:34 0
19 *537:CLK *157:34 0
20 *69:8 *157:14 0
21 *69:8 *157:34 0
22 *84:8 *157:14 0.000288087
23 *84:16 *157:6 0
24 *84:16 *157:14 0
25 *85:10 *485:A 4.75425e-05
26 *86:10 *157:34 0
27 *146:14 *157:34 0
28 *146:18 *157:34 0
*RES
1 *575:X *157:6 20.5356 
2 *157:6 *157:14 43.5123 
3 *157:14 *485:A 21.8334 
4 *157:14 *484:A 20 
5 *157:6 *157:34 47.1603 
6 *157:34 *486:A 20 
*END

*D_NET *158 0.000512628
*CONN
*I *441:B I *D sg13g2_nand2_1
*I *639:X O *D sg13g2_buf_1
*CAP
1 *441:B 0.000256314
2 *639:X 0.000256314
3 *445:B *441:B 0
*RES
1 *639:X *441:B 42.8119 
*END

*D_NET *159 0.00171337
*CONN
*I *488:B1 I *D sg13g2_o21ai_1
*I *576:X O *D sg13g2_dlygate4sd3_1
*CAP
1 *488:B1 0.000376474
2 *576:X 0.000121944
3 *159:8 0.000498418
4 *488:B1 *247:10 0
5 *488:A1 *488:B1 0.000306896
6 *488:A2 *488:B1 1.54008e-05
7 *535:CLK *488:B1 0
8 *84:16 *159:8 0
9 *140:20 *159:8 0.000394238
*RES
1 *576:X *159:8 41.8334 
2 *159:8 *488:B1 43.8007 
*END

*D_NET *160 0.000940306
*CONN
*I *536:D I *D sg13g2_dfrbpq_1
*I *577:X O *D sg13g2_dlygate4sd3_1
*CAP
1 *536:D 0.000168383
2 *577:X 0.000262157
3 *160:8 0.00043054
4 *537:CLK *536:D 0
5 *146:10 *160:8 0
6 *146:18 *536:D 0
7 *146:54 *160:8 0
8 *157:34 *536:D 7.92265e-05
9 *157:34 *160:8 0
*RES
1 *577:X *160:8 42.3278 
2 *160:8 *536:D 41.6171 
*END

*D_NET *161 0.00578471
*CONN
*I *431:A I *D sg13g2_nor2_1
*I *430:A I *D sg13g2_nand2_1
*I *432:A I *D sg13g2_xor2_1
*I *578:X O *D sg13g2_dlygate4sd3_1
*CAP
1 *431:A 0.000314287
2 *430:A 0.000160823
3 *432:A 0.000348852
4 *578:X 0.000313218
5 *161:27 0.000766986
6 *161:14 0.000640728
7 *161:12 0.000313218
8 *430:A *430:B 0.000394981
9 *431:A *430:B 0.000501009
10 *431:A *431:B 0
11 *431:A *229:10 0.000105719
12 *161:12 *207:8 0.000183244
13 *434:A2 *430:A 0
14 *517:CLK *432:A 0
15 *517:CLK *161:12 0
16 *517:CLK *161:27 0
17 *579:A *161:27 5.7368e-05
18 *110:10 *430:A 0.000395066
19 *110:10 *431:A 0.00077207
20 *117:23 *431:A 0
21 *118:8 *432:A 0
22 *118:29 *432:A 0
23 *141:34 *430:A 0
24 *141:53 *430:A 0
25 *144:20 *161:27 0
26 *144:24 *432:A 0.000177414
27 *144:24 *161:27 0
28 *144:26 *432:A 0.000339726
29 *144:102 *161:12 0
*RES
1 *578:X *161:12 43.4917 
2 *161:12 *161:14 20 
3 *161:14 *432:A 23.9449 
4 *161:14 *161:27 22.6986 
5 *161:27 *430:A 42.8531 
6 *161:27 *431:A 44.8719 
*END

*D_NET *162 0.000958609
*CONN
*I *434:B1 I *D sg13g2_o21ai_1
*I *579:X O *D sg13g2_dlygate4sd3_1
*CAP
1 *434:B1 0.000151513
2 *579:X 0.00015935
3 *162:8 0.000310864
4 *434:A2 *434:B1 0.000241424
5 *465:B *434:B1 0
6 *43:10 *434:B1 1.54556e-05
7 *109:10 *162:8 0
8 *141:53 *434:B1 8.0001e-05
*RES
1 *579:X *162:8 41.339 
2 *162:8 *434:B1 41.6171 
*END

*D_NET *163 0.000358673
*CONN
*I *518:D I *D sg13g2_dfrbpq_1
*I *580:X O *D sg13g2_dlygate4sd3_1
*CAP
1 *518:D 0.000179336
2 *580:X 0.000179336
3 *433:B *518:D 0
4 *434:A2 *518:D 0
5 *141:53 *518:D 0
*RES
1 *580:X *518:D 41.5347 
*END

*D_NET *164 0.00505192
*CONN
*I *496:A I *D sg13g2_nand2_1
*I *497:A I *D sg13g2_nor2_1
*I *498:A I *D sg13g2_xor2_1
*I *581:X O *D sg13g2_dlygate4sd3_1
*CAP
1 *496:A 0
2 *497:A 0
3 *498:A 0.000746702
4 *581:X 0.000151781
5 *164:38 0.00101096
6 *164:25 0.00138466
7 *164:8 0.00127219
8 *498:A *203:6 0
9 *498:A *235:12 0
10 *164:25 *581:A 0.000144843
11 *164:25 *203:6 0
12 *164:38 *496:B 0
13 *164:38 *238:19 0
14 uo_CORE2PAD[15] *164:38 0
15 uo_CORE2PAD[4] *164:38 0.00034079
16 uo_CORE2PAD[8] *164:38 0
17 *489:B *164:38 0
18 *499:B *498:A 0
19 *500:A2 *164:25 0
20 *541:CLK *498:A 0
21 *583:A *498:A 0
22 *15:13 *498:A 0
23 *15:13 *164:8 0
24 *91:10 *498:A 0
*RES
1 *581:X *164:8 41.5862 
2 *164:8 *498:A 47.6014 
3 *164:8 *164:25 23.5638 
4 *164:25 *497:A 20 
5 *164:25 *164:38 49.476 
6 *164:38 *496:A 20 
*END

*D_NET *165 0.000513944
*CONN
*I *500:B1 I *D sg13g2_o21ai_1
*I *582:X O *D sg13g2_dlygate4sd3_1
*CAP
1 *500:B1 0.000249272
2 *582:X 0.000249272
3 *500:B1 *203:6 0
4 *500:A2 *500:B1 1.54008e-05
5 *504:B *500:B1 0
6 *138:10 *500:B1 0
*RES
1 *582:X *500:B1 42.4926 
*END

*D_NET *166 0.000970353
*CONN
*I *540:D I *D sg13g2_dfrbpq_1
*I *583:X O *D sg13g2_dlygate4sd3_1
*CAP
1 *540:D 0.000105458
2 *583:X 0.000290998
3 *166:8 0.000396456
4 *540:D *184:36 0.000177442
5 *541:RESET_B *540:D 0
6 *15:13 *166:8 0
7 *88:8 *166:8 0
*RES
1 *583:X *166:8 43.3166 
2 *166:8 *540:D 41.1845 
*END

*D_NET *167 0.00401976
*CONN
*I *467:A I *D sg13g2_nor2_1
*I *468:A I *D sg13g2_xor2_1
*I *466:A I *D sg13g2_nand2_1
*I *584:X O *D sg13g2_dlygate4sd3_1
*CAP
1 *467:A 5.05411e-05
2 *468:A 0.000389311
3 *466:A 0.000312892
4 *584:X 0.00071634
5 *167:41 0.000591705
6 *167:8 0.00087738
7 *468:A *212:10 0
8 *167:8 *212:10 0
9 *167:41 *171:8 0
10 *167:41 *171:10 0
11 *167:41 *250:10 0
12 *167:41 *253:26 0
13 *457:A *468:A 0
14 *457:B *468:A 0
15 *470:A1 *466:A 4.77425e-05
16 *470:A2 *466:A 0
17 *530:CLK *468:A 0.00056558
18 *530:CLK *167:8 4.77702e-05
19 *531:RESET_B *167:41 0
20 *531:CLK *167:41 0
21 *562:A *467:A 8.00842e-05
22 *3:14 *167:41 0
23 *74:12 *167:8 0
24 *117:13 *466:A 0
25 *117:37 *466:A 0
26 *144:102 *466:A 0.000340411
*RES
1 *584:X *167:8 41.8334 
2 *167:8 *466:A 43.8831 
3 *167:8 *468:A 44.3775 
4 *584:X *167:41 45.8916 
5 *167:41 *467:A 40.5356 
*END

*D_NET *168 0.00119679
*CONN
*I *470:B1 I *D sg13g2_o21ai_1
*I *585:X O *D sg13g2_dlygate4sd3_1
*CAP
1 *470:B1 2.34565e-05
2 *585:X 0.000472898
3 *168:14 0.000496354
4 *168:14 *530:D 0
5 *470:A1 *168:14 0
6 *470:A2 *168:14 2.20619e-05
7 *51:8 *168:14 0.000182023
8 *72:18 *168:14 0
9 *74:12 *168:14 0
*RES
1 *585:X *168:14 43.1816 
2 *168:14 *470:B1 40.3193 
*END

*D_NET *169 0.000410329
*CONN
*I *435:B I *D sg13g2_nand2_1
*I *640:X O *D sg13g2_buf_1
*CAP
1 *435:B 0.000205164
2 *640:X 0.000205164
3 *435:B *429:A 0
4 *435:A *435:B 0
5 *641:A *435:B 0
6 *108:10 *435:B 0
7 *141:59 *435:B 0
*RES
1 *640:X *435:B 42.2145 
*END

*D_NET *170 0.000548009
*CONN
*I *530:D I *D sg13g2_dfrbpq_1
*I *586:X O *D sg13g2_dlygate4sd3_1
*CAP
1 *530:D 0.000186075
2 *586:X 0.000186075
3 *470:A1 *530:D 0.000175859
4 *168:14 *530:D 0
*RES
1 *586:X *530:D 42.0291 
*END

*D_NET *171 0.00199631
*CONN
*I *474:A I *D sg13g2_xor2_1
*I *472:A I *D sg13g2_nand2_1
*I *473:A I *D sg13g2_nor2_1
*I *587:X O *D sg13g2_dlygate4sd3_1
*CAP
1 *474:A 7.70764e-05
2 *472:A 8.49843e-05
3 *473:A 0.000370974
4 *587:X 0.000266439
5 *171:10 0.000654639
6 *171:8 0.000542196
7 *472:A *473:B 0
8 *473:A *250:14 0
9 *171:8 *250:10 0
10 *171:8 *250:14 0
11 *171:10 *250:14 0
12 *476:A1 *473:A 0
13 *476:A2 *473:A 0
14 *531:RESET_B *472:A 0
15 *531:RESET_B *474:A 0
16 *531:CLK *474:A 0
17 *71:20 *473:A 0
18 *78:8 *473:A 0
19 *117:23 *473:A 0
20 *167:41 *171:8 0
21 *167:41 *171:10 0
*RES
1 *587:X *171:8 42.8222 
2 *171:8 *171:10 2.0806 
3 *171:10 *473:A 43.6977 
4 *171:10 *472:A 40.7519 
5 *171:8 *474:A 40.7519 
*END

*D_NET *172 0.0011132
*CONN
*I *476:B1 I *D sg13g2_o21ai_1
*I *588:X O *D sg13g2_dlygate4sd3_1
*CAP
1 *476:B1 2.88081e-05
2 *588:X 0.000252232
3 *172:8 0.00028104
4 *476:A2 *476:B1 4.79124e-05
5 *533:CLK *172:8 0
6 *50:8 *172:8 0.000503206
7 *76:14 *172:8 0
8 *143:68 *172:8 0
*RES
1 *588:X *172:8 43.0694 
2 *172:8 *476:B1 40.3193 
*END

*D_NET *173 0.000505316
*CONN
*I *532:D I *D sg13g2_dfrbpq_1
*I *589:X O *D sg13g2_dlygate4sd3_1
*CAP
1 *532:D 0.000233339
2 *589:X 0.000233339
3 *476:A2 *532:D 0
4 *76:14 *532:D 3.8639e-05
*RES
1 *589:X *532:D 42.3175 
*END

*D_NET *174 0.00192311
*CONN
*I *478:A I *D sg13g2_nand2_1
*I *480:A I *D sg13g2_xor2_1
*I *479:A I *D sg13g2_nor2_1
*I *590:X O *D sg13g2_dlygate4sd3_1
*CAP
1 *478:A 0
2 *480:A 0
3 *479:A 0
4 *590:X 0.000129411
5 *174:22 4.96119e-05
6 *174:16 0.000557379
7 *174:8 0.000637178
8 *174:8 *247:40 0
9 *174:16 *210:8 0
10 *174:22 *247:18 0.000127825
11 *79:16 *174:16 8.00842e-05
12 *79:29 *174:16 0.00034162
13 *141:114 *174:16 0
*RES
1 *590:X *174:8 41.339 
2 *174:8 *174:16 25.7474 
3 *174:16 *174:22 40.5974 
4 *174:22 *479:A 20 
5 *174:16 *480:A 20 
6 *174:8 *478:A 40 
*END

*D_NET *175 0.00212054
*CONN
*I *482:B1 I *D sg13g2_o21ai_1
*I *591:X O *D sg13g2_dlygate4sd3_1
*CAP
1 *482:B1 0.000153904
2 *591:X 0.000122768
3 *175:8 0.000276672
4 *482:A2 *482:B1 0.000240298
5 *552:A *482:B1 0
6 *140:20 *175:8 0.000661379
7 *147:25 *175:8 0.000665522
*RES
1 *591:X *175:8 43.0694 
2 *175:8 *482:B1 41.6171 
*END

*D_NET *176 0.000385549
*CONN
*I *534:D I *D sg13g2_dfrbpq_1
*I *592:X O *D sg13g2_dlygate4sd3_1
*CAP
1 *534:D 0.000192774
2 *592:X 0.000192774
3 *117:23 *534:D 0
*RES
1 *592:X *534:D 42.0291 
*END

*D_NET *177 0.00240173
*CONN
*I *449:A I *D sg13g2_nor2_1
*I *448:A I *D sg13g2_nand2_1
*I *450:A I *D sg13g2_xor2_1
*I *593:X O *D sg13g2_dlygate4sd3_1
*CAP
1 *449:A 0.000544858
2 *448:A 3.32845e-05
3 *450:A 0.000103185
4 *593:X 0
5 *177:8 0.000213571
6 *177:6 0.000621959
7 *449:A *593:A 0
8 *450:A *448:B 4.77425e-05
9 *450:B *450:A 0
10 *547:RESET_B *449:A 0
11 *594:A *448:A 1.54008e-05
12 *59:21 *449:A 0.00032018
13 *59:21 *450:A 0.00023464
14 *59:21 *177:8 0.000266907
15 *145:36 *449:A 0
16 *145:36 *177:8 0
17 *145:49 *449:A 0
*RES
1 *593:X *177:6 40 
2 *177:6 *177:8 1.339 
3 *177:8 *450:A 41.4111 
4 *177:8 *448:A 40.3193 
5 *177:6 *449:A 45.9855 
*END

*D_NET *178 0.000313629
*CONN
*I *452:B1 I *D sg13g2_o21ai_1
*I *594:X O *D sg13g2_dlygate4sd3_1
*CAP
1 *452:B1 0.000116745
2 *594:X 0.000116745
3 *452:A2 *452:B1 8.01392e-05
4 *524:CLK *452:B1 0
*RES
1 *594:X *452:B1 41.3802 
*END

*D_NET *179 0.000577556
*CONN
*I *524:D I *D sg13g2_dfrbpq_1
*I *595:X O *D sg13g2_dlygate4sd3_1
*CAP
1 *524:D 0
2 *595:X 0.000288778
3 *179:10 0.000288778
4 *179:10 *525:D 0
5 *447:A *179:10 0
6 *59:8 *179:10 0
7 *59:21 *179:10 0
*RES
1 *595:X *179:10 43.2033 
2 *179:10 *524:D 40 
*END

*D_NET *180 0.000579739
*CONN
*I *429:A I *D sg13g2_nand2_1
*I *641:X O *D sg13g2_buf_1
*CAP
1 *429:A 0.000189508
2 *641:X 0.000100361
3 *180:8 0.00028987
4 *435:B *429:A 0
5 *640:A *429:A 0
6 *641:A *429:A 0
7 *141:59 *429:A 0
*RES
1 *641:X *180:8 41.0918 
2 *180:8 *429:A 41.6171 
*END

*D_NET *181 0.00416116
*CONN
*I *512:A I *D sg13g2_nor2_1
*I *511:A I *D sg13g2_nand2_1
*I *513:A I *D sg13g2_xor2_1
*I *596:X O *D sg13g2_dlygate4sd3_1
*CAP
1 *512:A 0
2 *511:A 0.000278683
3 *513:A 0.000728094
4 *596:X 0.000179273
5 *181:23 0.000630401
6 *181:8 0.00125909
7 *511:A *511:B 0.000209641
8 *511:A *216:14 0
9 *513:A *235:14 0
10 *513:A *235:24 7.62389e-05
11 *181:8 *235:24 0.000237686
12 *181:23 *548:A 0
13 *181:23 *216:14 0
14 *514:A *513:A 0
15 *514:B *513:A 0
16 *547:CLK *513:A 0
17 *547:CLK *181:23 0
18 *598:A *181:23 0
19 *13:15 *181:8 7.61961e-05
20 *30:10 *511:A 0.000147555
21 *30:10 *181:23 9.70004e-05
22 *102:10 *181:23 0.00024131
23 *123:8 *513:A 0
*RES
1 *596:X *181:8 42.0806 
2 *181:8 *513:A 47.2203 
3 *181:8 *181:23 23.3475 
4 *181:23 *511:A 23.3836 
5 *181:23 *512:A 20 
*END

*D_NET *182 0.000418181
*CONN
*I *515:B1 I *D sg13g2_o21ai_1
*I *597:X O *D sg13g2_dlygate4sd3_1
*CAP
1 *515:B1 0.000201376
2 *597:X 0.000201376
3 uo_CORE2PAD[0] *515:B1 0
4 *510:A *515:B1 0
5 *39:10 *515:B1 1.54282e-05
*RES
1 *597:X *515:B1 41.9982 
*END

*D_NET *183 0.00110449
*CONN
*I *546:D I *D sg13g2_dfrbpq_1
*I *598:X O *D sg13g2_dlygate4sd3_1
*CAP
1 *546:D 0.000106527
2 *598:X 0.000373298
3 *183:8 0.000479825
4 *546:D *503:A 0.000144842
5 *145:60 *546:D 0
*RES
1 *598:X *183:8 43.3166 
2 *183:8 *546:D 41.1845 
*END

*D_NET *184 0.0033643
*CONN
*I *461:A I *D sg13g2_nor2_1
*I *460:A I *D sg13g2_nand2_1
*I *462:A I *D sg13g2_xor2_1
*I *599:X O *D sg13g2_dlygate4sd3_1
*CAP
1 *461:A 0
2 *460:A 0.000252288
3 *462:A 2.674e-05
4 *599:X 2.36489e-05
5 *184:36 0.000815029
6 *184:8 0.000497296
7 *184:6 0.00105695
8 *184:36 *461:B 0.000112683
9 *184:36 *240:12 0.000241983
10 *537:CLK *184:36 1.54008e-05
11 *540:D *184:36 0.000177442
12 *541:RESET_B *184:8 0
13 *541:RESET_B *184:36 0
14 *68:10 *460:A 0.000144843
15 *68:10 *184:8 0
16 *117:142 *184:36 0
17 *117:158 *184:36 0
18 *142:20 *460:A 0
19 *142:20 *184:8 0
20 *142:20 *184:36 0
21 *146:78 *184:36 0
*RES
1 *599:X *184:6 20.3502 
2 *184:6 *184:8 2.266 
3 *184:8 *462:A 20.3502 
4 *184:8 *460:A 22.5338 
5 *184:6 *184:36 48.308 
6 *184:36 *461:A 20 
*END

*D_NET *185 0.00272747
*CONN
*I *464:B1 I *D sg13g2_o21ai_1
*I *600:X O *D sg13g2_dlygate4sd3_1
*CAP
1 *464:B1 5.98094e-05
2 *600:X 0.000474873
3 *185:8 0.000534682
4 *464:A2 *464:B1 1.54008e-05
5 *485:A *464:B1 0
6 *67:22 *185:8 0.00135495
7 *69:8 *185:8 0
8 *117:126 *185:8 0
9 *117:138 *185:8 0
10 *121:8 *185:8 0.000287758
11 *147:49 *464:B1 0
*RES
1 *600:X *185:8 47.2718 
2 *185:8 *464:B1 40.5356 
*END

*D_NET *186 0.000391504
*CONN
*I *528:D I *D sg13g2_dfrbpq_1
*I *601:X O *D sg13g2_dlygate4sd3_1
*CAP
1 *528:D 0.000195752
2 *601:X 0.000195752
3 *528:D *587:A 0
*RES
1 *601:X *528:D 42.2763 
*END

*D_NET *187 0.00368563
*CONN
*I *491:B I *D sg13g2_nor2_1
*I *492:B I *D sg13g2_xor2_1
*I *490:B I *D sg13g2_nand2_1
*I *602:X O *D sg13g2_dlygate4sd3_1
*CAP
1 *491:B 0.000463697
2 *492:B 0
3 *490:B 0.000434204
4 *602:X 0
5 *187:12 0.000953439
6 *187:6 0.000982932
7 *490:B *240:12 0
8 *491:B *491:A 0
9 *491:B *492:A 0
10 *491:B *240:12 0
11 *491:B *240:19 0
12 *187:12 *492:A 0
13 *187:12 *240:12 0
14 *87:27 *491:B 0
15 *87:27 *187:12 0
16 *142:20 *490:B 0.000404179
17 *142:20 *187:12 0
18 *146:54 *187:12 0.000181192
19 *146:69 *187:12 0.00026599
*RES
1 *602:X *187:6 40 
2 *187:6 *187:12 25.5826 
3 *187:12 *490:B 23.9964 
4 *187:12 *492:B 20 
5 *187:6 *491:B 45.2942 
*END

*D_NET *188 0.00141838
*CONN
*I *494:B1 I *D sg13g2_o21ai_1
*I *603:X O *D sg13g2_dlygate4sd3_1
*CAP
1 *494:B1 0.000403311
2 *603:X 0.000403311
3 *494:A1 *494:B1 0.000128618
4 *494:A2 *494:B1 0.000305932
5 *538:CLK *494:B1 0
6 *32:10 *494:B1 0
7 *87:27 *494:B1 0.000177212
*RES
1 *603:X *494:B1 44.7586 
*END

*D_NET *189 0.000881092
*CONN
*I *538:D I *D sg13g2_dfrbpq_1
*I *604:X O *D sg13g2_dlygate4sd3_1
*CAP
1 *538:D 0.000319368
2 *604:X 0.000319368
3 *538:RESET_B *538:D 0
4 *142:20 *538:D 0.000242355
*RES
1 *604:X *538:D 43.9449 
*END

*D_NET *190 0.00393205
*CONN
*I *454:A I *D sg13g2_nand2_1
*I *455:A I *D sg13g2_nor2_1
*I *456:A I *D sg13g2_xor2_1
*I *605:X O *D sg13g2_dlygate4sd3_1
*CAP
1 *454:A 4.82096e-05
2 *455:A 0.000520205
3 *456:A 0.000987663
4 *605:X 0.000119748
5 *190:12 0.00160629
6 *190:10 0.000266378
7 *454:A *543:D 0.000112456
8 *455:A *454:B 0
9 *455:A *455:B 0
10 *455:A *205:10 0
11 *455:A *219:21 0
12 *456:A *205:10 0
13 *190:10 *543:D 0.000111685
14 *457:B *456:A 0
15 *501:B *455:A 0
16 *64:8 *456:A 0
17 *73:12 *456:A 4.77347e-05
18 *117:96 *190:12 0
19 *142:26 *455:A 0
20 *142:26 *190:10 0.000111685
21 *145:8 *456:A 0
*RES
1 *605:X *190:10 41.3493 
2 *190:10 *190:12 1.0918 
3 *190:12 *456:A 49.2597 
4 *190:12 *455:A 44.9955 
5 *190:10 *454:A 40.7519 
*END

*D_NET *191 0.000235656
*CONN
*I *423:B I *D sg13g2_nand2_1
*I *642:X O *D sg13g2_buf_1
*CAP
1 *423:B 0.000117828
2 *642:X 0.000117828
3 *465:A *423:B 0
4 *642:A *423:B 0
5 *141:28 *423:B 0
6 *141:34 *423:B 0
*RES
1 *642:X *423:B 41.3802 
*END

*D_NET *192 0.000797969
*CONN
*I *458:B1 I *D sg13g2_o21ai_1
*I *606:X O *D sg13g2_dlygate4sd3_1
*CAP
1 *458:B1 0.000391284
2 *606:X 0.000391284
3 *458:B1 *526:D 0
4 *457:A *458:B1 0
5 *458:A2 *458:B1 1.54008e-05
6 *607:A *458:B1 0
7 *145:12 *458:B1 0
8 *145:21 *458:B1 0
*RES
1 *606:X *458:B1 44.1921 
*END

*D_NET *193 9.45957e-05
*CONN
*I *526:D I *D sg13g2_dfrbpq_1
*I *607:X O *D sg13g2_dlygate4sd3_1
*CAP
1 *526:D 4.72978e-05
2 *607:X 4.72978e-05
3 *458:B1 *526:D 0
*RES
1 *607:X *526:D 40.5974 
*END

*D_NET *194 0.00567033
*CONN
*I *504:A I *D sg13g2_xor2_1
*I *502:A I *D sg13g2_nand2_1
*I *503:A I *D sg13g2_nor2_1
*I *608:X O *D sg13g2_dlygate4sd3_1
*CAP
1 *504:A 0.00016527
2 *502:A 0.000369612
3 *503:A 0.000790664
4 *608:X 0.000876951
5 *194:10 0.00187196
6 *502:A *565:A 8.00842e-05
7 *502:A *235:24 0
8 *504:A *195:12 0.000209198
9 *194:10 *506:B1 0
10 *504:B *504:A 0
11 *510:A *194:10 0
12 *546:D *503:A 0.000144842
13 *555:A *194:10 0
14 *13:15 *502:A 0.000532405
15 *14:11 *504:A 0
16 *14:11 *194:10 0
17 *96:6 *502:A 0.000629342
18 *96:14 *504:A 0
19 *117:96 *504:A 0
20 *117:96 *194:10 0
21 *142:71 *194:10 0
22 *145:60 *503:A 0
*RES
1 *608:X *194:10 47.0046 
2 *194:10 *503:A 48.1782 
3 *194:10 *502:A 44.429 
4 *608:X *504:A 41.6171 
*END

*D_NET *195 0.00213798
*CONN
*I *506:B1 I *D sg13g2_o21ai_1
*I *609:X O *D sg13g2_dlygate4sd3_1
*CAP
1 *506:B1 0.000524818
2 *609:X 0.000399528
3 *195:12 0.000924346
4 *506:B1 *608:A 0
5 *504:B *195:12 0
6 *504:A *195:12 0.000209198
7 *506:A1 *506:B1 0
8 *506:A2 *506:B1 8.00842e-05
9 *555:A *506:B1 0
10 *610:A *506:B1 0
11 *14:11 *195:12 0
12 *117:96 *506:B1 0
13 *194:10 *506:B1 0
*RES
1 *609:X *195:12 44.3878 
2 *195:12 *506:B1 44.8616 
*END

*D_NET *196 0.00134257
*CONN
*I *542:D I *D sg13g2_dfrbpq_1
*I *610:X O *D sg13g2_dlygate4sd3_1
*CAP
1 *542:D 0
2 *610:X 0.000464916
3 *196:10 0.000464916
4 *196:10 *233:8 0
5 *196:10 *235:14 0.000177184
6 *459:B *196:10 0
7 *505:B *196:10 0
8 *98:8 *196:10 0.000235556
9 *117:96 *196:10 0
*RES
1 *610:X *196:10 45.2427 
2 *196:10 *542:D 40 
*END

*D_NET *197 0.00480565
*CONN
*I *443:A I *D sg13g2_nor2_1
*I *442:A I *D sg13g2_nand2_1
*I *444:A I *D sg13g2_xor2_1
*I *611:X O *D sg13g2_dlygate4sd3_1
*CAP
1 *443:A 0
2 *442:A 0
3 *444:A 0.000160717
4 *611:X 0.000199598
5 *197:32 0.000416299
6 *197:8 0.000726189
7 *197:6 0.00118137
8 *444:A *442:B 0
9 *444:A *444:B 0
10 *197:6 *223:6 0
11 *197:8 *442:B 0
12 *197:8 *223:8 0
13 *197:8 *223:23 0
14 *197:32 *522:D 0
15 *197:32 *223:36 0.00110099
16 *197:32 *226:27 7.97219e-05
17 *446:A2 *444:A 0
18 *447:A *197:6 0
19 *447:A *197:8 0
20 *447:B *197:8 0
21 *523:CLK *197:6 8.00842e-05
22 *523:CLK *197:8 0.00027467
23 *56:10 *197:8 0.000242213
24 *57:8 *197:32 0.0003438
25 *58:10 *444:A 0
*RES
1 *611:X *197:6 21.8334 
2 *197:6 *197:8 5.7268 
3 *197:8 *444:A 22.163 
4 *197:8 *442:A 20 
5 *197:6 *197:32 46.5714 
6 *197:32 *443:A 20 
*END

*D_NET *198 0.000412341
*CONN
*I *446:B1 I *D sg13g2_o21ai_1
*I *612:X O *D sg13g2_dlygate4sd3_1
*CAP
1 *446:B1 0.000198443
2 *612:X 0.000198443
3 *446:A1 *446:B1 0
4 *446:A2 *446:B1 1.54556e-05
5 *613:A *446:B1 0
*RES
1 *612:X *446:B1 41.6171 
*END

*D_NET *199 0.000381107
*CONN
*I *522:D I *D sg13g2_dfrbpq_1
*I *613:X O *D sg13g2_dlygate4sd3_1
*CAP
1 *522:D 0.000190553
2 *613:X 0.000190553
3 *446:A2 *522:D 0
4 *522:RESET_B *522:D 0
5 *197:32 *522:D 0
*RES
1 *613:X *522:D 41.9673 
*END

*D_NET *200 0.00275094
*CONN
*I *492:A I *D sg13g2_xor2_1
*I *614:X O *D sg13g2_dlygate4sd3_1
*CAP
1 *492:A 0.000680476
2 *614:X 0.000307061
3 *200:8 0.000987537
4 *200:8 *203:6 0.000242213
5 *489:B *200:8 0.000533654
6 *491:B *492:A 0
7 *87:27 *492:A 0
8 *87:27 *200:8 0
9 *117:158 *492:A 0
10 *187:12 *492:A 0
*RES
1 *614:X *200:8 43.5638 
2 *200:8 *492:A 47.519 
*END

*D_NET *201 0.000212029
*CONN
*I *486:B I *D sg13g2_xor2_1
*I *615:X O *D sg13g2_dlygate4sd3_1
*CAP
1 *486:B 0
2 *615:X 0.000106015
3 *201:8 0.000106015
4 *86:10 *201:8 0
5 *146:10 *201:8 0
*RES
1 *615:X *201:8 41.0918 
2 *201:8 *486:B 40 
*END

*D_NET *202 0.000204833
*CONN
*I *507:B I *D sg13g2_nand2_1
*I *643:X O *D sg13g2_buf_1
*CAP
1 *507:B 0.000102417
2 *643:X 0.000102417
3 *471:B *507:B 0
4 *643:A *507:B 0
5 *141:22 *507:B 0
*RES
1 *643:X *507:B 41.133 
*END

*D_NET *203 0.00320163
*CONN
*I *498:B I *D sg13g2_xor2_1
*I *616:X O *D sg13g2_dlygate4sd3_1
*CAP
1 *498:B 0
2 *616:X 0.00109435
3 *203:12 0.00021568
4 *203:6 0.00131003
5 *203:6 *581:A 0
6 *203:6 *235:12 0
7 *203:12 *235:8 0
8 *459:B *203:12 0
9 *489:B *203:6 0
10 *498:A *203:6 0
11 *500:B1 *203:6 0
12 *500:A1 *203:12 0
13 *500:A2 *203:6 0
14 *541:CLK *203:6 0
15 *583:A *203:6 0.000339353
16 *603:A *203:6 0
17 *87:27 *203:6 0
18 *125:20 *203:6 0
19 *125:22 *203:6 0
20 *138:10 *203:6 0
21 *164:25 *203:6 0
22 *200:8 *203:6 0.000242213
*RES
1 *616:X *203:6 31.1343 
2 *203:6 *203:12 42.575 
3 *203:12 *498:B 20 
*END

*D_NET *204 0.000552065
*CONN
*I *462:B I *D sg13g2_xor2_1
*I *617:X O *D sg13g2_dlygate4sd3_1
*CAP
1 *462:B 0.000171083
2 *617:X 0.000171083
3 *462:B *461:B 0
4 *462:B *529:D 0
5 *142:20 *462:B 0.000209899
*RES
1 *617:X *462:B 41.9982 
*END

*D_NET *205 0.00322775
*CONN
*I *456:B I *D sg13g2_xor2_1
*I *618:X O *D sg13g2_dlygate4sd3_1
*CAP
1 *456:B 2.41961e-05
2 *618:X 0.000981073
3 *205:10 0.00100527
4 *205:10 *605:A 0
5 *205:10 *257:8 0
6 *455:A *205:10 0
7 *456:A *205:10 0
8 *470:A2 *205:10 0.000129077
9 *64:8 *205:10 0.00108813
*RES
1 *618:X *205:10 49.8468 
2 *205:10 *456:B 40.3193 
*END

*D_NET *206 0.00123776
*CONN
*I *438:B I *D sg13g2_xor2_1
*I *619:X O *D sg13g2_dlygate4sd3_1
*CAP
1 *438:B 0
2 *619:X 0.000372684
3 *206:10 0.000372684
4 *206:10 *619:A 1.53311e-05
5 *206:10 *224:10 0
6 *206:10 *226:8 0.000240249
7 *141:78 *206:10 0.000236811
8 *144:47 *206:10 0
*RES
1 *619:X *206:10 44.1921 
2 *206:10 *438:B 40 
*END

*D_NET *207 0.00178307
*CONN
*I *432:B I *D sg13g2_xor2_1
*I *620:X O *D sg13g2_dlygate4sd3_1
*CAP
1 *432:B 0.000361084
2 *620:X 0.000188324
3 *207:8 0.000549408
4 *141:53 *432:B 0.000501011
5 *144:24 *432:B 0
6 *144:26 *432:B 0
7 *144:102 *207:8 0
8 *161:12 *207:8 0.000183244
*RES
1 *620:X *207:8 42.0806 
2 *207:8 *432:B 43.5638 
*END

*D_NET *208 0.00109026
*CONN
*I *426:B I *D sg13g2_xor2_1
*I *621:X O *D sg13g2_dlygate4sd3_1
*CAP
1 *426:B 0.000356076
2 *621:X 0.000189055
3 *208:8 0.000545132
4 *426:A *426:B 0
5 *516:CLK *426:B 0
6 *107:12 *426:B 0
7 *144:20 *426:B 0
8 *151:10 *208:8 0
9 *152:8 *208:8 0
*RES
1 *621:X *208:8 41.8334 
2 *208:8 *426:B 43.5638 
*END

*D_NET *209 0.000459944
*CONN
*I *444:B I *D sg13g2_xor2_1
*I *622:X O *D sg13g2_dlygate4sd3_1
*CAP
1 *444:B 0.000229972
2 *622:X 0.000229972
3 *444:B *442:B 0
4 *444:A *444:B 0
5 *613:A *444:B 0
6 *58:10 *444:B 0
*RES
1 *622:X *444:B 41.7225 
*END

*D_NET *210 0.00111955
*CONN
*I *480:B I *D sg13g2_xor2_1
*I *623:X O *D sg13g2_dlygate4sd3_1
*CAP
1 *480:B 0
2 *623:X 0.000201653
3 *210:8 0.000201653
4 *210:8 *247:18 0.00071625
5 *210:8 *247:40 0
6 *79:16 *210:8 0
7 *141:114 *210:8 0
8 *174:16 *210:8 0
*RES
1 *623:X *210:8 43.3166 
2 *210:8 *480:B 40 
*END

*D_NET *211 0.000319926
*CONN
*I *474:B I *D sg13g2_xor2_1
*I *624:X O *D sg13g2_dlygate4sd3_1
*CAP
1 *474:B 0.000159963
2 *624:X 0.000159963
3 *531:RESET_B *474:B 0
4 *531:CLK *474:B 0
*RES
1 *624:X *474:B 41.8746 
*END

*D_NET *212 0.00212253
*CONN
*I *468:B I *D sg13g2_xor2_1
*I *625:X O *D sg13g2_dlygate4sd3_1
*CAP
1 *468:B 0.000357025
2 *625:X 0.000426745
3 *212:10 0.00078377
4 *212:10 *584:A 0
5 *468:A *212:10 0
6 *470:A2 *212:10 0.000554993
7 *530:CLK *468:B 0
8 *530:CLK *212:10 0
9 *562:A *212:10 0
10 *73:12 *212:10 0
11 *74:12 *468:B 0
12 *167:8 *212:10 0
*RES
1 *625:X *212:10 45.2736 
2 *212:10 *468:B 42.9149 
*END

*D_NET *213 0.00129679
*CONN
*I *547:D I *D sg13g2_dfrbpq_1
*I *514:Y O *D sg13g2_xnor2_1
*CAP
1 *547:D 0.00036614
2 *514:Y 0.00036614
3 *514:A *547:D 0
4 *547:RESET_B *547:D 1.54008e-05
5 *145:49 *547:D 0.000339583
6 *145:60 *547:D 0.000209526
*RES
1 *514:Y *547:D 43.914 
*END

*D_NET *214 0.00126842
*CONN
*I *596:A I *D sg13g2_dlygate4sd3_1
*I *546:Q O *D sg13g2_dfrbpq_1
*CAP
1 *596:A 3.2862e-05
2 *546:Q 0.00021718
3 *214:8 0.000250042
4 *214:8 *565:A 0.000161404
5 *214:8 *216:14 7.63467e-05
6 *214:8 *235:24 7.62389e-05
7 *510:A *596:A 0
8 *13:15 *214:8 0.000454344
*RES
1 *546:Q *214:8 43.0694 
2 *214:8 *596:A 40.3193 
*END

*D_NET *215 0.00110443
*CONN
*I *548:A I *D sg13g2_buf_1
*I *547:Q O *D sg13g2_dfrbpq_1
*CAP
1 *548:A 0.000173524
2 *547:Q 0.000378689
3 *215:8 0.000552213
4 uo_CORE2PAD[5] *548:A 0
5 uo_CORE2PAD[5] *215:8 0
6 *514:A *215:8 0
7 *547:RESET_B *548:A 0
8 *30:10 *548:A 0
9 *39:10 *215:8 0
10 *181:23 *548:A 0
*RES
1 *547:Q *215:8 43.3166 
2 *215:8 *548:A 41.6171 
*END

*D_NET *216 0.00499802
*CONN
*I *565:A I *D sg13g2_dlygate4sd3_1
*I *511:B I *D sg13g2_nand2_1
*I *512:B I *D sg13g2_nor2_1
*I *543:Q O *D sg13g2_dfrbpq_1
*CAP
1 *565:A 0.000263615
2 *511:B 0.000373604
3 *512:B 0
4 *543:Q 0.000482151
5 *216:14 0.000900994
6 *216:8 0.00127316
7 *511:B *235:24 1.54285e-05
8 *216:8 *235:14 0
9 *216:8 *235:24 0
10 *216:14 *235:24 0
11 *502:A *565:A 8.00842e-05
12 *510:A *511:B 0
13 *510:A *565:A 0
14 *510:B *511:B 0
15 *511:A *511:B 0.000209641
16 *511:A *216:14 0
17 *610:A *565:A 1.54008e-05
18 *13:15 *511:B 0
19 *96:6 *565:A 0
20 *96:6 *216:8 0.000792347
21 *102:10 *216:14 0.000241194
22 *128:10 *216:8 0
23 *142:71 *565:A 0.000112648
24 *181:23 *216:14 0
25 *214:8 *565:A 0.000161404
26 *214:8 *216:14 7.63467e-05
*RES
1 *543:Q *216:8 45.2942 
2 *216:8 *216:14 24.5938 
3 *216:14 *512:B 20 
4 *216:14 *511:B 23.7778 
5 *216:8 *565:A 42.678 
*END

*D_NET *217 0.00246296
*CONN
*I *525:D I *D sg13g2_dfrbpq_1
*I *451:Y O *D sg13g2_xnor2_1
*CAP
1 *525:D 0.000843577
2 *451:Y 0.000843577
3 *525:D *611:A 0
4 *447:B *525:D 0
5 *119:10 *525:D 0.000209756
6 *148:10 *525:D 0.00056605
7 *179:10 *525:D 0
*RES
1 *451:Y *525:D 48.9095 
*END

*D_NET *218 0.000469092
*CONN
*I *593:A I *D sg13g2_dlygate4sd3_1
*I *524:Q O *D sg13g2_dfrbpq_1
*CAP
1 *593:A 0.000129725
2 *524:Q 0.000129725
3 *449:A *593:A 0
4 *59:21 *593:A 0.000209641
*RES
1 *524:Q *593:A 41.4008 
*END

*D_NET *219 0.00124615
*CONN
*I *454:B I *D sg13g2_nand2_1
*I *618:A I *D sg13g2_dlygate4sd3_1
*I *455:B I *D sg13g2_nor2_1
*I *525:Q O *D sg13g2_dfrbpq_1
*CAP
1 *454:B 0.000261253
2 *618:A 0
3 *455:B 5.48476e-05
4 *525:Q 5.32964e-05
5 *219:21 0.000514929
6 *219:6 0.00036182
7 *454:B *543:D 0
8 *455:A *454:B 0
9 *455:A *455:B 0
10 *455:A *219:21 0
11 *117:66 *455:B 0
12 *117:66 *219:21 0
*RES
1 *525:Q *219:6 20.5974 
2 *219:6 *455:B 20.5356 
3 *219:6 *219:21 42.7398 
4 *219:21 *618:A 20 
5 *219:21 *454:B 22.266 
*END

*D_NET *220 0.00293349
*CONN
*I *567:A I *D sg13g2_dlygate4sd3_1
*I *449:B I *D sg13g2_nor2_1
*I *448:B I *D sg13g2_nand2_1
*I *523:Q O *D sg13g2_dfrbpq_1
*CAP
1 *567:A 3.21358e-05
2 *449:B 0
3 *448:B 0.000294795
4 *523:Q 0.000283744
5 *220:29 0.000281748
6 *220:21 0.000464004
7 *220:10 0.000444915
8 *220:8 0.000283744
9 *450:B *448:B 0
10 *450:A *448:B 4.77425e-05
11 *594:A *448:B 0
12 *594:A *220:21 0
13 *40:8 *220:29 0.0006165
14 *61:8 *220:29 0.00018416
15 *62:8 *220:8 0
16 *145:30 *448:B 0
17 *145:30 *220:21 0
*RES
1 *523:Q *220:8 43.0694 
2 *220:8 *220:10 20 
3 *220:10 *448:B 22.8325 
4 *220:10 *220:21 1.4008 
5 *220:21 *220:29 44.3775 
6 *220:29 *449:B 20 
7 *220:21 *567:A 20.3193 
*END

*D_NET *221 0.00042712
*CONN
*I *523:D I *D sg13g2_dfrbpq_1
*I *445:Y O *D sg13g2_xnor2_1
*CAP
1 *523:D 0.00021356
2 *445:Y 0.00021356
3 *446:A2 *523:D 0
4 *613:A *523:D 0
*RES
1 *445:Y *523:D 42.1321 
*END

*D_NET *222 0.000359208
*CONN
*I *611:A I *D sg13g2_dlygate4sd3_1
*I *522:Q O *D sg13g2_dfrbpq_1
*CAP
1 *611:A 0.000179604
2 *522:Q 0.000179604
3 *447:A *611:A 0
4 *525:D *611:A 0
5 *119:10 *611:A 0
*RES
1 *522:Q *611:A 41.9982 
*END

*D_NET *223 0.004499
*CONN
*I *443:B I *D sg13g2_nor2_1
*I *622:A I *D sg13g2_dlygate4sd3_1
*I *442:B I *D sg13g2_nand2_1
*I *521:Q O *D sg13g2_dfrbpq_1
*CAP
1 *443:B 0
2 *622:A 0
3 *442:B 0.00022446
4 *521:Q 0.000174943
5 *223:36 0.00026031
6 *223:23 0.000142686
7 *223:8 0.000745728
8 *223:6 0.000813835
9 *444:B *442:B 0
10 *444:A *442:B 0
11 *447:A *223:23 4.77699e-05
12 *521:CLK *223:36 0.00040071
13 *523:RESET_B *223:8 0
14 *530:CLK *223:6 0
15 *613:A *442:B 0
16 *613:A *223:8 0
17 *56:10 *442:B 0.000242213
18 *56:10 *223:23 7.51285e-05
19 *119:12 *223:36 0.000270227
20 *144:60 *223:36 0
21 *197:6 *223:6 0
22 *197:8 *442:B 0
23 *197:8 *223:8 0
24 *197:8 *223:23 0
25 *197:32 *223:36 0.00110099
*RES
1 *521:Q *223:6 21.6171 
2 *223:6 *223:8 3.5638 
3 *223:8 *442:B 22.4823 
4 *223:8 *223:23 41.6583 
5 *223:23 *622:A 20 
6 *223:6 *223:36 45.3663 
7 *223:36 *443:B 20 
*END

*D_NET *224 0.00268507
*CONN
*I *521:D I *D sg13g2_dfrbpq_1
*I *439:Y O *D sg13g2_xnor2_1
*CAP
1 *521:D 0
2 *439:Y 0.000322346
3 *224:10 0.000322346
4 *141:78 *224:10 0.000991447
5 *144:47 *224:10 0.00104893
6 *206:10 *224:10 0
*RES
1 *439:Y *224:10 45.8607 
2 *224:10 *521:D 40 
*END

*D_NET *225 0.000669274
*CONN
*I *572:A I *D sg13g2_dlygate4sd3_1
*I *520:Q O *D sg13g2_dfrbpq_1
*CAP
1 *572:A 0.000246708
2 *520:Q 0.000246708
3 *572:A *226:27 0
4 *114:10 *572:A 0.000175858
5 *141:78 *572:A 0
*RES
1 *520:Q *572:A 42.8119 
*END

*D_NET *226 0.00335772
*CONN
*I *619:A I *D sg13g2_dlygate4sd3_1
*I *436:B I *D sg13g2_nand2_1
*I *437:B I *D sg13g2_nor2_1
*I *519:Q O *D sg13g2_dfrbpq_1
*CAP
1 *619:A 0.000235807
2 *436:B 0
3 *437:B 0
4 *519:Q 2.81246e-05
5 *226:27 0.000646832
6 *226:8 0.000968075
7 *226:6 0.000585174
8 *436:A *226:27 0
9 *446:A2 *226:27 0
10 *521:RESET_B *226:8 0
11 *522:RESET_B *226:8 0
12 *572:A *226:27 0
13 *573:A *226:27 0.000144958
14 *114:10 *226:27 0.000175858
15 *141:78 *226:8 0
16 *141:78 *226:27 0
17 *154:8 *226:27 0.000237592
18 *197:32 *226:27 7.97219e-05
19 *206:10 *619:A 1.53311e-05
20 *206:10 *226:8 0.000240249
*RES
1 *519:Q *226:6 20.3502 
2 *226:6 *226:8 3.3475 
3 *226:8 *437:B 20 
4 *226:8 *226:27 47.622 
5 *226:27 *436:B 20 
6 *226:6 *619:A 22.9355 
*END

*D_NET *227 0.000617041
*CONN
*I *519:D I *D sg13g2_dfrbpq_1
*I *433:Y O *D sg13g2_xnor2_1
*CAP
1 *519:D 0.000123112
2 *433:Y 0.000112987
3 *227:8 0.000236099
4 *141:53 *519:D 0.000144842
5 *141:55 *519:D 0
6 *144:26 *519:D 0
*RES
1 *433:Y *227:8 41.339 
2 *227:8 *519:D 41.1845 
*END

*D_NET *228 0.000368906
*CONN
*I *578:A I *D sg13g2_dlygate4sd3_1
*I *518:Q O *D sg13g2_dfrbpq_1
*CAP
1 *578:A 0.000184453
2 *518:Q 0.000184453
3 *117:37 *578:A 0
*RES
1 *518:Q *578:A 41.751 
*END

*D_NET *229 0.00392085
*CONN
*I *431:B I *D sg13g2_nor2_1
*I *620:A I *D sg13g2_dlygate4sd3_1
*I *430:B I *D sg13g2_nand2_1
*I *517:Q O *D sg13g2_dfrbpq_1
*CAP
1 *431:B 0.000170799
2 *620:A 0.000315684
3 *430:B 0.000288265
4 *517:Q 0.000242083
5 *229:21 0.000486483
6 *229:10 0.000530347
7 *426:A *431:B 1.54556e-05
8 *426:A *620:A 0
9 *430:A *430:B 0.000394981
10 *431:A *430:B 0.000501009
11 *431:A *431:B 0
12 *431:A *229:10 0.000105719
13 *517:CLK *620:A 0
14 *71:10 *430:B 0.000661059
15 *71:20 *430:B 0
16 *71:20 *229:10 0
17 *107:12 *431:B 0
18 *110:10 *430:B 0
19 *110:10 *431:B 0.000208968
20 *117:23 *229:10 0
21 *144:102 *229:10 0
*RES
1 *517:Q *229:10 42.6471 
2 *229:10 *430:B 45.047 
3 *229:10 *229:21 20 
4 *229:21 *620:A 23.2136 
5 *229:21 *431:B 21.8334 
*END

*D_NET *230 0.00029116
*CONN
*I *517:D I *D sg13g2_dfrbpq_1
*I *427:Y O *D sg13g2_xnor2_1
*CAP
1 *517:D 0.00014558
2 *427:Y 0.00014558
3 *517:RESET_B *517:D 0
4 *141:34 *517:D 0
*RES
1 *427:Y *517:D 41.1845 
*END

*D_NET *231 0.00102561
*CONN
*I *569:A I *D sg13g2_dlygate4sd3_1
*I *516:Q O *D sg13g2_dfrbpq_1
*CAP
1 *569:A 0.000109716
2 *516:Q 0.000251073
3 *231:10 0.000360789
4 *569:A *533:D 0
5 *231:10 *533:D 0
6 *476:A1 *569:A 0.000175467
7 *75:10 *231:10 0
8 *117:23 *231:10 0
9 *151:10 *231:10 0.000128562
*RES
1 *516:Q *231:10 42.6471 
2 *231:10 *569:A 41.1845 
*END

*D_NET *232 0.00388437
*CONN
*I *621:A I *D sg13g2_dlygate4sd3_1
*I *425:B I *D sg13g2_nor2_1
*I *424:B I *D sg13g2_nand2_1
*I *544:Q O *D sg13g2_dfrbpq_1
*CAP
1 *621:A 0.000106941
2 *425:B 0.000107926
3 *424:B 0
4 *544:Q 0.000298666
5 *232:22 0.00051821
6 *232:14 0.0008697
7 *232:8 0.00064917
8 *424:A *232:14 7.51285e-05
9 *424:A *232:22 0.000875249
10 *425:A *425:B 0
11 *425:A *232:8 0
12 *425:A *232:14 0
13 *516:CLK *425:B 0.000129509
14 *516:CLK *232:14 7.86681e-05
15 *106:8 *232:22 0
16 *117:23 *232:8 0
17 *141:22 *232:22 0
18 *141:28 *232:22 0
19 *151:10 *621:A 0
20 *151:10 *232:14 0
21 *151:25 *232:14 4.68833e-05
22 *152:8 *232:14 0.000128316
*RES
1 *544:Q *232:8 42.6986 
2 *232:8 *232:14 23.1106 
3 *232:14 *232:22 45.9534 
4 *232:22 *424:B 20 
5 *232:14 *425:B 21.3184 
6 *232:8 *621:A 41.3184 
*END

*D_NET *233 0.00153029
*CONN
*I *543:D I *D sg13g2_dfrbpq_1
*I *505:Y O *D sg13g2_xnor2_1
*CAP
1 *543:D 0.000368981
2 *505:Y 0.000284092
3 *233:8 0.000653073
4 *454:A *543:D 0.000112456
5 *454:B *543:D 0
6 *459:B *233:8 0
7 *67:10 *233:8 0
8 *142:26 *543:D 0
9 *190:10 *543:D 0.000111685
10 *196:10 *233:8 0
*RES
1 *505:Y *233:8 42.8222 
2 *233:8 *543:D 43.5638 
*END

*D_NET *234 0.000659309
*CONN
*I *608:A I *D sg13g2_dlygate4sd3_1
*I *542:Q O *D sg13g2_dfrbpq_1
*CAP
1 *608:A 0.000169378
2 *542:Q 0.000169378
3 *506:B1 *608:A 0
4 *610:A *608:A 0.000241134
5 *96:14 *608:A 7.94189e-05
*RES
1 *542:Q *608:A 41.9673 
*END

*D_NET *235 0.00710574
*CONN
*I *566:A I *D sg13g2_dlygate4sd3_1
*I *503:B I *D sg13g2_nor2_1
*I *502:B I *D sg13g2_nand2_1
*I *541:Q O *D sg13g2_dfrbpq_1
*CAP
1 *566:A 0
2 *503:B 0
3 *502:B 0
4 *541:Q 0.000142116
5 *235:35 0.000565648
6 *235:24 0.000670919
7 *235:14 0.00217699
8 *235:12 0.00109113
9 *235:8 0.000292823
10 *498:A *235:12 0
11 *500:A1 *235:8 0.000501962
12 *502:A *235:24 0
13 *505:B *235:14 0
14 *511:B *235:24 1.54285e-05
15 *513:A *235:14 0
16 *513:A *235:24 7.62389e-05
17 *542:CLK *235:14 0
18 *598:A *235:24 0.000339326
19 *610:A *235:14 0
20 *96:6 *235:14 0
21 *96:6 *235:24 0.000499976
22 *123:8 *235:14 0
23 *123:31 *235:14 0
24 *128:10 *235:14 0.000242071
25 *181:8 *235:24 0.000237686
26 *196:10 *235:14 0.000177184
27 *203:6 *235:12 0
28 *203:12 *235:8 0
29 *214:8 *235:24 7.62389e-05
30 *216:8 *235:14 0
31 *216:8 *235:24 0
32 *216:14 *235:24 0
*RES
1 *541:Q *235:8 42.3278 
2 *235:8 *235:12 21.4008 
3 *235:12 *235:14 8.1168 
4 *235:14 *235:24 47.1688 
5 *235:24 *502:B 20 
6 *235:14 *235:35 44.5526 
7 *235:35 *503:B 20 
8 *235:12 *566:A 20 
*END

*D_NET *236 0.000973123
*CONN
*I *541:D I *D sg13g2_dfrbpq_1
*I *499:Y O *D sg13g2_xnor2_1
*CAP
1 *541:D 0
2 *499:Y 0.000333113
3 *236:10 0.000333113
4 *499:A *236:10 0
5 *541:RESET_B *236:10 0.000306897
6 *68:10 *236:10 0
7 *91:10 *236:10 0
*RES
1 *499:Y *236:10 43.3887 
2 *236:10 *541:D 40 
*END

*D_NET *237 0.000407046
*CONN
*I *581:A I *D sg13g2_dlygate4sd3_1
*I *540:Q O *D sg13g2_dfrbpq_1
*CAP
1 *581:A 0.000131102
2 *540:Q 0.000131102
3 *500:A2 *581:A 0
4 *164:25 *581:A 0.000144843
5 *203:6 *581:A 0
*RES
1 *540:Q *581:A 41.4008 
*END

*D_NET *238 0.00263916
*CONN
*I *496:B I *D sg13g2_nand2_1
*I *616:A I *D sg13g2_dlygate4sd3_1
*I *497:B I *D sg13g2_nor2_1
*I *539:Q O *D sg13g2_dfrbpq_1
*CAP
1 *496:B 0.000442491
2 *616:A 0
3 *497:B 7.50786e-05
4 *539:Q 0.000122229
5 *238:19 0.000841107
6 *238:10 0.000473695
7 *238:8 0.000122229
8 *496:B *491:A 0
9 *496:B *614:A 8.00842e-05
10 uo_CORE2PAD[6] *496:B 0.000240377
11 *557:A *238:19 0
12 *630:A *238:19 0
13 *89:10 *496:B 0.000241868
14 *92:10 *238:19 0
15 *117:158 *238:8 0
16 *117:158 *238:19 0
17 *164:38 *496:B 0
18 *164:38 *238:19 0
*RES
1 *539:Q *238:8 41.0918 
2 *238:8 *238:10 20 
3 *238:10 *497:B 20.5356 
4 *238:10 *238:19 3.5638 
5 *238:19 *616:A 20 
6 *238:19 *496:B 24.4152 
*END

*D_NET *239 0.000325136
*CONN
*I *539:D I *D sg13g2_dfrbpq_1
*I *493:Y O *D sg13g2_xnor2_1
*CAP
1 *539:D 0.000162568
2 *493:Y 0.000162568
3 *539:D *240:12 0
4 *146:69 *539:D 0
*RES
1 *493:Y *539:D 41.5347 
*END

*D_NET *240 0.00447007
*CONN
*I *491:A I *D sg13g2_nor2_1
*I *614:A I *D sg13g2_dlygate4sd3_1
*I *490:A I *D sg13g2_nand2_1
*I *538:Q O *D sg13g2_dfrbpq_1
*CAP
1 *491:A 0.000202711
2 *614:A 4.66635e-05
3 *490:A 0
4 *538:Q 0
5 *240:19 0.000463602
6 *240:12 0.00129732
7 *240:6 0.00151155
8 *240:12 *602:A 0
9 uo_CORE2PAD[3] *240:12 0
10 uo_CORE2PAD[8] *491:A 0.000181192
11 uo_CORE2PAD[8] *614:A 4.77425e-05
12 uo_CORE2PAD[8] *240:19 7.52149e-05
13 *490:B *240:12 0
14 *491:B *491:A 0
15 *491:B *240:12 0
16 *491:B *240:19 0
17 *496:B *491:A 0
18 *496:B *614:A 8.00842e-05
19 *538:RESET_B *240:12 0.000177157
20 *539:D *240:12 0
21 *87:27 *240:12 0
22 *89:10 *491:A 0.000144842
23 *89:10 *240:12 0
24 *89:10 *240:19 0
25 *92:10 *491:A 0
26 *142:20 *240:12 0
27 *146:69 *240:12 0
28 *146:78 *240:12 0
29 *184:36 *240:12 0.000241983
30 *187:12 *240:12 0
*RES
1 *538:Q *240:6 40 
2 *240:6 *240:12 32.9986 
3 *240:12 *490:A 20 
4 *240:6 *240:19 2.3278 
5 *240:19 *614:A 40.5356 
6 *240:19 *491:A 42.2454 
*END

*D_NET *241 0.000167189
*CONN
*I *602:A I *D sg13g2_dlygate4sd3_1
*I *537:Q O *D sg13g2_dfrbpq_1
*CAP
1 *602:A 8.35943e-05
2 *537:Q 8.35943e-05
3 *146:69 *602:A 0
4 *240:12 *602:A 0
*RES
1 *537:Q *602:A 40.9167 
*END

*D_NET *242 0.000837451
*CONN
*I *537:D I *D sg13g2_dfrbpq_1
*I *487:Y O *D sg13g2_xnor2_1
*CAP
1 *537:D 0.000418725
2 *487:Y 0.000418725
3 *487:B *537:D 0
4 *576:A *537:D 0
5 *86:10 *537:D 0
6 *142:6 *537:D 0
7 *157:34 *537:D 0
*RES
1 *487:Y *537:D 43.914 
*END

*D_NET *243 0.000440195
*CONN
*I *575:A I *D sg13g2_dlygate4sd3_1
*I *536:Q O *D sg13g2_dfrbpq_1
*CAP
1 *575:A 0.000163885
2 *536:Q 0.000163885
3 *488:A2 *575:A 0
4 *84:16 *575:A 0
5 *147:49 *575:A 0.000112426
*RES
1 *536:Q *575:A 41.6171 
*END

*D_NET *244 0.00287049
*CONN
*I *615:A I *D sg13g2_dlygate4sd3_1
*I *484:B I *D sg13g2_nand2_1
*I *485:B I *D sg13g2_nor2_1
*I *535:Q O *D sg13g2_dfrbpq_1
*CAP
1 *615:A 0
2 *484:B 0
3 *485:B 0.000175924
4 *535:Q 0
5 *244:34 0.000132529
6 *244:14 0.000832589
7 *244:4 0.000789194
8 *485:A *485:B 0
9 *485:A *244:14 0
10 *488:A2 *244:14 0.000209641
11 *535:CLK *244:14 0
12 *48:8 *244:14 0
13 *84:16 *244:14 0
14 *84:16 *244:34 0
15 *85:10 *485:B 4.78769e-05
16 *146:10 *244:34 0
17 *147:49 *485:B 0.000274785
18 *147:49 *244:14 0.000407949
19 *157:14 *244:14 0
20 *157:34 *244:14 0
*RES
1 *535:Q *244:4 20 
2 *244:4 *244:14 46.7362 
3 *244:14 *485:B 21.8334 
4 *244:14 *484:B 20 
5 *244:4 *244:34 41.3802 
6 *244:34 *615:A 20 
*END

*D_NET *245 0.000743425
*CONN
*I *535:D I *D sg13g2_dfrbpq_1
*I *481:Y O *D sg13g2_xnor2_1
*CAP
1 *535:D 0.000371713
2 *481:Y 0.000371713
3 *481:B *535:D 0
4 *591:A *535:D 0
5 *592:A *535:D 0
6 *147:25 *535:D 0
7 *147:33 *535:D 0
*RES
1 *481:Y *535:D 43.5638 
*END

*D_NET *246 0.00167792
*CONN
*I *590:A I *D sg13g2_dlygate4sd3_1
*I *534:Q O *D sg13g2_dfrbpq_1
*CAP
1 *590:A 0.000669228
2 *534:Q 0.000669228
3 *590:A *247:10 0.00033946
4 *590:A *247:25 0
5 *590:A *247:40 0
6 *591:A *590:A 0
7 *3:14 *590:A 0
8 *147:25 *590:A 0
*RES
1 *534:Q *590:A 46.6332 
*END

*D_NET *247 0.00570886
*CONN
*I *478:B I *D sg13g2_nand2_1
*I *623:A I *D sg13g2_dlygate4sd3_1
*I *479:B I *D sg13g2_nor2_1
*I *533:Q O *D sg13g2_dfrbpq_1
*CAP
1 *478:B 0
2 *623:A 0
3 *479:B 0
4 *533:Q 0.000515211
5 *247:40 0.000324041
6 *247:25 0.000353744
7 *247:18 0.0003618
8 *247:10 0.000906714
9 *488:B1 *247:10 0
10 *488:A1 *247:25 0
11 *488:A1 *247:40 0
12 *535:CLK *247:10 0.000501482
13 *590:A *247:10 0.00033946
14 *590:A *247:25 0
15 *590:A *247:40 0
16 *591:A *247:40 4.7885e-05
17 *3:14 *247:10 0
18 *79:16 *247:18 0
19 *140:20 *247:18 0.00151445
20 *174:8 *247:40 0
21 *174:22 *247:18 0.000127825
22 *210:8 *247:18 0.00071625
23 *210:8 *247:40 0
*RES
1 *533:Q *247:10 25.7474 
2 *247:10 *247:18 47.3439 
3 *247:18 *479:B 20 
4 *247:10 *247:25 0.3193 
5 *247:25 *623:A 20 
6 *247:25 *247:40 43.7698 
7 *247:40 *478:B 20 
*END

*D_NET *248 0.00140952
*CONN
*I *533:D I *D sg13g2_dfrbpq_1
*I *475:Y O *D sg13g2_xnor2_1
*CAP
1 *533:D 0.0006652
2 *475:Y 0.0006652
3 *476:A1 *533:D 0
4 *569:A *533:D 0
5 *117:23 *533:D 0
6 *151:10 *533:D 7.91226e-05
7 *231:10 *533:D 0
*RES
1 *475:Y *533:D 46.7671 
*END

*D_NET *249 0.000392422
*CONN
*I *587:A I *D sg13g2_dlygate4sd3_1
*I *532:Q O *D sg13g2_dfrbpq_1
*CAP
1 *587:A 0.000196211
2 *532:Q 0.000196211
3 *528:D *587:A 0
4 *562:A *587:A 0
*RES
1 *532:Q *587:A 42.2454 
*END

*D_NET *250 0.0025938
*CONN
*I *624:A I *D sg13g2_dlygate4sd3_1
*I *472:B I *D sg13g2_nand2_1
*I *473:B I *D sg13g2_nor2_1
*I *531:Q O *D sg13g2_dfrbpq_1
*CAP
1 *624:A 0
2 *472:B 0
3 *473:B 0.000317929
4 *531:Q 0.000234154
5 *250:14 0.000757615
6 *250:10 0.000673841
7 *472:A *473:B 0
8 *473:A *250:14 0
9 *476:A2 *473:B 8.03146e-05
10 *531:RESET_B *473:B 0
11 *562:A *250:10 0.000242186
12 *3:14 *250:10 0
13 *78:8 *250:14 0.000287759
14 *167:41 *250:10 0
15 *171:8 *250:10 0
16 *171:8 *250:14 0
17 *171:10 *250:14 0
*RES
1 *531:Q *250:10 42.7089 
2 *250:10 *250:14 24.7998 
3 *250:14 *473:B 23.5638 
4 *250:14 *472:B 20 
5 *250:10 *624:A 40 
*END

*D_NET *251 0.000254257
*CONN
*I *531:D I *D sg13g2_dfrbpq_1
*I *469:Y O *D sg13g2_xnor2_1
*CAP
1 *531:D 0.000127128
2 *469:Y 0.000127128
3 *71:20 *531:D 0
*RES
1 *469:Y *531:D 41.1845 
*END

*D_NET *252 0.000609613
*CONN
*I *584:A I *D sg13g2_dlygate4sd3_1
*I *530:Q O *D sg13g2_dfrbpq_1
*CAP
1 *584:A 0.000304807
2 *530:Q 0.000304807
3 *562:A *584:A 0
4 *212:10 *584:A 0
*RES
1 *530:Q *584:A 43.2033 
*END

*D_NET *253 0.00396261
*CONN
*I *467:B I *D sg13g2_nor2_1
*I *625:A I *D sg13g2_dlygate4sd3_1
*I *466:B I *D sg13g2_nand2_1
*I *529:Q O *D sg13g2_dfrbpq_1
*CAP
1 *467:B 0
2 *625:A 9.84258e-05
3 *466:B 0
4 *529:Q 0.000181151
5 *253:26 0.000896759
6 *253:18 0.00126051
7 *253:10 0.000446477
8 *470:A1 *253:26 0
9 *562:A *625:A 8.02267e-05
10 *562:A *253:18 0.000209384
11 *3:14 *253:18 0
12 *3:14 *253:26 0
13 *15:13 *253:10 0
14 *72:10 *253:26 4.73929e-05
15 *72:18 *253:26 0
16 *73:12 *625:A 8.02267e-05
17 *74:12 *253:26 0.000662052
18 *117:13 *253:10 0
19 *117:13 *253:26 0
20 *117:23 *253:26 0
21 *117:37 *253:26 0
22 *132:16 *253:10 0
23 *167:41 *253:26 0
*RES
1 *529:Q *253:10 42.1527 
2 *253:10 *253:18 42.4926 
3 *253:18 *253:26 30.3206 
4 *253:26 *466:B 20 
5 *253:18 *625:A 41.133 
6 *253:10 *467:B 40 
*END

*D_NET *254 0.000325805
*CONN
*I *529:D I *D sg13g2_dfrbpq_1
*I *463:Y O *D sg13g2_xnor2_1
*CAP
1 *529:D 0.000162902
2 *463:Y 0.000162902
3 *529:D *461:B 0
4 *462:B *529:D 0
*RES
1 *463:Y *529:D 41.5347 
*END

*D_NET *255 0.000328818
*CONN
*I *599:A I *D sg13g2_dlygate4sd3_1
*I *528:Q O *D sg13g2_dfrbpq_1
*CAP
1 *599:A 2.59015e-05
2 *528:Q 0.000114622
3 *255:8 0.000140524
4 *599:A *461:B 0
5 *600:A *599:A 4.77702e-05
6 *15:13 *255:8 0
*RES
1 *528:Q *255:8 41.0918 
2 *255:8 *599:A 40.3193 
*END

*D_NET *256 0.00477995
*CONN
*I *461:B I *D sg13g2_nor2_1
*I *460:B I *D sg13g2_nand2_1
*I *617:A I *D sg13g2_dlygate4sd3_1
*I *527:Q O *D sg13g2_dfrbpq_1
*CAP
1 *461:B 0.00103952
2 *460:B 0
3 *617:A 0
4 *527:Q 0.00014265
5 *256:29 0.000136875
6 *256:14 0.000281706
7 *256:6 0.001327
8 *462:B *461:B 0
9 *463:B *461:B 0.000209614
10 *529:RESET_B *461:B 0
11 *529:D *461:B 0
12 *537:CLK *461:B 1.54008e-05
13 *556:A *461:B 0
14 *599:A *461:B 0
15 *600:A *461:B 0
16 *67:10 *256:14 0.000608769
17 *67:22 *461:B 0
18 *68:10 *256:29 1.54008e-05
19 *91:10 *256:29 4.77425e-05
20 *117:53 *256:6 0
21 *117:60 *256:6 0
22 *117:142 *461:B 0
23 *132:16 *256:14 0.000608354
24 *132:16 *256:29 0.000234224
25 *142:20 *461:B 0
26 *142:20 *256:6 0
27 *142:20 *256:29 0
28 *146:22 *461:B 0
29 *184:36 *461:B 0.000112683
*RES
1 *527:Q *256:6 21.4008 
2 *256:6 *256:14 43.1415 
3 *256:14 *617:A 20 
4 *256:14 *256:29 41.7304 
5 *256:29 *460:B 20 
6 *256:6 *461:B 30.2897 
*END

*D_NET *257 0.0011264
*CONN
*I *527:D I *D sg13g2_dfrbpq_1
*I *457:Y O *D sg13g2_xnor2_1
*CAP
1 *527:D 0.000214968
2 *457:Y 0.00034823
3 *257:8 0.000563198
4 *470:A2 *257:8 0
5 *527:RESET_B *527:D 0
6 *73:12 *527:D 0
7 *145:12 *527:D 0
8 *205:10 *257:8 0
*RES
1 *457:Y *257:8 43.5638 
2 *257:8 *527:D 41.8334 
*END

*D_NET *258 0.000975737
*CONN
*I *605:A I *D sg13g2_dlygate4sd3_1
*I *526:Q O *D sg13g2_dfrbpq_1
*CAP
1 *605:A 0.000487869
2 *526:Q 0.000487869
3 *67:22 *605:A 0
4 *117:60 *605:A 0
5 *117:66 *605:A 0
6 *205:10 *605:A 0
*RES
1 *526:Q *605:A 44.9337 
*END

*D_NET *259 0.000519497
*CONN
*I *568:A I *D sg13g2_dlygate4sd3_1
*I *545:Q O *D sg13g2_dfrbpq_1
*CAP
1 *568:A 0.000163527
2 *545:Q 0.000163527
3 *636:A *568:A 0.0001447
4 *4:11 *568:A 4.77425e-05
5 *141:16 *568:A 0
6 *143:10 *568:A 0
*RES
1 *545:Q *568:A 41.751 
*END
